LAMMPS (10 Feb 2021)
# Input written to comply with LAMMPS 2017-08-11 00:00:00

# Atomic Configuration
units           metal
boundary        p p p
box tilt large
atom_style      charge
read_data       na3ocl_ca.lmp
Reading data file ...
  orthogonal box = (0.0000000 0.0000000 0.0000000) to (22.505000 22.505000 22.505000)
  1 by 1 by 1 MPI processor grid
  reading atoms ...
  624 atoms
  read_data CPU = 0.003 seconds

# Potential Setup
pair_style  buck/coul/long 12.0
pair_coeff * * 0.0 1.0 0.0
pair_coeff 2 2    1788.190000  0.159000   0.000000 # Na Na
pair_coeff 2 4    1170.410000  0.315000   0.000000 # Na Cl
pair_coeff 2 3     588.380000  0.338000   0.000000 # Na O
pair_coeff 4 4    1227.200000  0.321000  14.530000 # Cl Cl
pair_coeff 3 4    8286.910000  0.259000  62.200000 # Cl O
pair_coeff 3 3   22764.300000  0.149000  13.190000 # O  O
pair_coeff 1 3    1090.400000  0.343700   0.000000 # O Ca
pair_coeff 1 4    2303.000000  0.340200   0.000000 # Cl Ca
kspace_style pppm 1e-05

# General Setup
timestep        0.001

# Thermodynamic Information Output
thermo_style custom step temp epair emol etotal press lx ly lz fmax cpu cpuremain
thermo          1000

# Intial Atom Velocity
velocity all create 800 80800 dist gaussian rot yes

# Stage 0: npt_equilibriation
restart         0
fix             int all npt aniso 1.0 1.0 0.1 temp 800 800 0.5
run             50000
PPPM initialization ...
  using 12-bit tables for long-range coulomb (../kspace.cpp:339)
  G vector (1/distance) = 0.26613179
  grid = 20 20 20
  stencil order = 5
  estimated absolute RMS force accuracy = 0.00016248967
  estimated relative force accuracy = 1.1284283e-05
  using double precision KISS FFT
  3d grid and FFT values/proc = 19683 8000
Neighbor list info ...
  update every 1 steps, delay 10 steps, check yes
  max neighbors/atom: 2000, page size: 100000
  master list distance cutoff = 14
  ghost atom cutoff = 14
  binsize = 7, bins = 4 4 4
  1 neighbor lists, perpetual/occasional/extra = 1 0 0
  (1) pair buck/coul/long, perpetual
      attributes: half, newton on
      pair build: half/bin/atomonly/newton
      stencil: half/bin/3d/newton
      bin: standard
Per MPI rank memory allocation (min/avg/max) = 6.193 | 6.193 | 6.193 Mbytes
Step Temp E_pair E_mol TotEng Press Lx Ly Lz Fmax CPU CPULeft 
       0          800   -4329.7481            0   -4265.3249   -18370.179       22.505       22.505       22.505     3.502842            0            0 
    1000    568.66389   -4295.9027            0   -4250.1087   -2140.0456    22.277627    22.377928    22.428991    2.6847904    9.4564061    463.36395 
    2000    717.36757   -4281.5028            0   -4223.7338    -2362.286    22.369092    22.471094    22.480278    3.4287545    18.843574     452.2458 
    3000       845.23   -4273.6474            0   -4205.5818    112.29826    22.338145    22.473008    22.496538    2.8452515    28.193968     441.7055 
    4000    785.53251   -4271.8744            0   -4208.6162   -2976.6276    22.408345    22.576996    22.462574    2.2660871    37.518043    431.45749 
    5000    777.03949   -4279.6713            0   -4217.0971    2114.3403    22.403215    22.419672    22.318558    2.5711825    46.847017    421.62316 
    6000    810.22981   -4274.3186            0   -4209.0715    2244.3609    22.379963    22.594399    22.204781    2.9557748    56.180408    411.98967 
    7000    794.53885   -4272.2337            0   -4208.2502    1581.5636    22.600764    22.282606    22.384774    2.8695518    65.504092    402.38229 
    8000    792.26888   -4278.4074            0   -4214.6067   -3529.3186    22.490764    22.502049    22.430547    3.4645841    74.844409    392.93315 
    9000    773.56436   -4274.8319            0   -4212.5374    -2694.941    22.414588    22.415446    22.534973    2.4036377     84.18509    383.50985 
   10000    809.18016   -4273.2971            0   -4208.1345    1714.3731     22.28263    22.473498    22.491916    3.0918293    93.533478    374.13392 
   11000    799.26556   -4277.9923            0   -4213.6282    608.89248     22.44524    22.390309    22.362223    2.6335822    102.85027    364.65095 
   12000    787.90548   -4276.9146            0   -4213.4653     1424.862    22.493082    22.271152    22.438116    3.0575845    112.23539    355.41206 
   13000    809.64742   -4273.4316            0   -4208.2314   -291.39394    22.466748    22.411478    22.462132    3.5533764    121.56729    345.99921 
   14000     769.7272   -4273.7445            0   -4211.7591    1256.0444    22.497777    22.283535    22.463252    2.4847452    130.89535    336.58804 
   15000    791.33745   -4275.4338            0   -4211.7082    340.33127    22.425787    22.364436    22.490531    3.1630357    140.23188    327.20773 
   16000    823.52922   -4276.5605            0   -4210.2425    942.90501    22.509445    22.396595    22.337547    2.6256683    149.55693    317.80847 
   17000    814.34279   -4275.4874            0   -4209.9091     832.7999    22.491705    22.370317    22.346006    2.7918563    158.88457    308.42299 
   18000    769.42789   -4276.9993            0    -4215.038    2765.5488    22.536295    22.278743    22.251338    3.1355352    168.22448    299.06575 
   19000    813.61225   -4273.9363            0   -4208.4169   -1500.9743    22.466493    22.458452    22.476017    2.6672834    177.57371    289.72553 
   20000    814.15131   -4275.7839            0    -4210.221   -4175.3484    22.432658    22.458789    22.640699    2.4760132    186.88513    280.32769 
   21000    811.56013   -4279.4728            0   -4214.1186   -647.76785    22.424486    22.534074    22.336777    2.6387369    196.21551    270.96427 
   22000     842.6519   -4272.3714            0   -4204.5134    2333.8632    22.310646    22.576379    22.380611    4.1473861    205.52853    261.58176 
   23000    811.33186   -4273.7094            0   -4208.3736    1034.3016    22.383939    22.554919    22.412225    3.2740942    214.84093    252.20457 
   24000    769.47237   -4275.4226            0   -4213.4577   -3245.2455    22.497288    22.497065    22.482564    3.7399471    224.17969    242.86133 
   25000    817.44112   -4276.0965            0   -4210.2687    2168.0091    22.390933    22.340142    22.438865    2.9127581    233.51798    233.51798 
   26000    847.76915    -4275.887            0    -4207.617   -684.86635    22.457218    22.414025    22.439492    2.6164848     242.8339    224.15437 
   27000    801.29925   -4276.8577            0   -4212.3298   -1083.1333    22.472678    22.564924    22.249216    2.8929333    252.15084    214.79516 
   28000    796.89338   -4274.6003            0   -4210.4272    -13.16291    22.427501    22.439661    22.456189    2.4709514    261.48678     205.4539 
   29000    814.11012   -4271.5489            0   -4205.9894    735.80272    22.546363    22.479784    22.341558    2.5106255    270.79524     196.0931 
   30000    764.50607   -4274.9195            0   -4213.3545   -2140.1684    22.456056    22.559235    22.307189    2.3383292    280.13317    186.75545 
   31000    832.27307   -4278.0381            0    -4211.016   -954.31758    22.545882    22.406596    22.367294    2.6842635    289.46898    177.41647 
   32000    842.75005   -4272.4017            0   -4204.5358    907.63142    22.490548    22.452463    22.319298    2.4743703    298.79721    168.07343 
   33000    779.86526   -4275.5513            0   -4212.7495   -3682.0319    22.584379    22.525767    22.385392    3.0370613    308.12775    158.73248 
   34000    792.31662    -4275.295            0   -4211.4905   -683.36294    22.405476    22.549289    22.370418     3.398883    317.47334    149.39922 
   35000    803.17527   -4272.2547            0   -4207.5758    3372.5331    22.259857     22.48759    22.439247    2.9375229    326.80778    140.06048 
   36000    761.66071   -4276.0637            0   -4214.7279   -5885.3167    22.649188    22.532527    22.290266     2.353089    336.16247    130.72985 
   37000    803.03776   -4275.8331            0   -4211.1652    983.04219    22.425954    22.446131    22.374822    3.2310585    345.52218    121.39969 
   38000    826.77828   -4276.0801            0   -4209.5004   -1065.2144    22.427999    22.550767     22.37759    3.1096767    354.89169    112.07106 
   39000    758.84215   -4277.5528            0   -4216.4439   -2884.7107    22.510754    22.531343    22.377244    2.6639941    364.22442    102.72996 
   40000    791.48991   -4273.9332            0   -4210.1952   -529.70172    22.225957    22.516207    22.567606    2.4795868    373.55221    93.388053 
   41000    819.42579   -4278.1358            0   -4212.1482   -2184.9897    22.490663    22.499634    22.333622    2.4824217    382.91652    84.054846 
   42000    776.39683   -4279.6916            0   -4217.1691   -1054.0319    22.338919    22.430008     22.44816    2.8513586    392.36503    74.736197 
   43000    807.16174   -4276.8348            0   -4211.8348   -1918.9299    22.596827    22.272707    22.528952    2.8126638    401.79845    65.409051 
   44000    792.73951   -4274.7231            0   -4210.8845    1216.3991    22.406725    22.576976     22.23828    3.1526949    411.14362     56.06504 
   45000    757.00439    -4279.083            0   -4218.1221   -979.31457    22.406321    22.460995     22.38799    3.0245967    420.49286    46.721429 
   46000    824.29161   -4278.0503            0   -4211.6708   -2129.9088    22.499612    22.452792     22.40761    2.6757695     429.8426    37.377617 
   47000    801.07706   -4276.8374            0   -4212.3274   -405.21285    22.224553    22.477454    22.605588    2.4751201    439.17571    28.032492 
   48000    722.62396   -4277.3269            0   -4219.1347   -58.420905    22.519614    22.470497    22.251797    2.7310517     448.5229    18.688454 
   49000    828.34454   -4279.8947            0   -4213.1889    1680.9503    22.415164    22.412578    22.323379     2.333479    457.87721    9.3444328 
   50000    812.61796   -4275.5423            0   -4210.1029   -554.81489    22.509851    22.538242    22.288228    3.1363659    467.20987            0 
Loop time of 467.21 on 1 procs for 50000 steps with 624 atoms

Performance: 9.246 ns/day, 2.596 hours/ns, 107.018 timesteps/s
99.9% CPU use with 1 MPI tasks x no OpenMP threads

MPI task timing breakdown:
Section |  min time  |  avg time  |  max time  |%varavg| %total
---------------------------------------------------------------
Pair    | 314.17     | 314.17     | 314.17     |   0.0 | 67.24
Kspace  | 69.779     | 69.779     | 69.779     |   0.0 | 14.94
Neigh   | 4.2282     | 4.2282     | 4.2282     |   0.0 |  0.90
Comm    | 1.4473     | 1.4473     | 1.4473     |   0.0 |  0.31
Output  | 0.0014226  | 0.0014226  | 0.0014226  |   0.0 |  0.00
Modify  | 77.186     | 77.186     | 77.186     |   0.0 | 16.52
Other   |            | 0.3974     |            |       |  0.09

Nlocal:        624.000 ave         624 max         624 min
Histogram: 1 0 0 0 0 0 0 0 0 0
Nghost:        6783.00 ave        6783 max        6783 min
Histogram: 1 0 0 0 0 0 0 0 0 0
Neighs:        198647.0 ave      198647 max      198647 min
Histogram: 1 0 0 0 0 0 0 0 0 0

Total # of neighbors = 198647
Ave neighs/atom = 318.34455
Neighbor list builds = 1108
Dangerous builds = 0

# Stage 1: nvt_equilibriation
unfix int
restart         0
fix             int all nvt temp 800 800 0.5
run             50000
PPPM initialization ...
  using 12-bit tables for long-range coulomb (../kspace.cpp:339)
  G vector (1/distance) = 0.26768902
  grid = 20 24 20
  stencil order = 5
  estimated absolute RMS force accuracy = 0.00014209178
  estimated relative force accuracy = 9.8677279e-06
  using double precision KISS FFT
  3d grid and FFT values/proc = 22599 9600
Per MPI rank memory allocation (min/avg/max) = 6.449 | 6.449 | 6.449 Mbytes
Step Temp E_pair E_mol TotEng Press Lx Ly Lz Fmax CPU CPULeft 
   50000    812.61796   -4275.5469            0   -4210.1075   -559.49153    22.509851    22.538242    22.288228    3.1363886            0            0 
   51000     802.6821   -4279.6001            0   -4214.9609    -1732.434    22.509851    22.538242    22.288228    2.7204419    7.9788511    390.96375 
   52000    767.80526   -4276.9095            0   -4215.0788    443.66662    22.509851    22.538242    22.288228    2.9113776    15.956848    382.96438 
   53000    815.94429   -4277.3743            0    -4211.667   -1103.4898    22.509851    22.538242    22.288228    2.9844208    23.932237     374.9384 
   54000    787.78823   -4274.2833            0   -4210.8434    -830.9672    22.509851    22.538242    22.288228    4.1132653    31.915139    367.02411 
   55000    771.77806   -4277.8844            0   -4215.7338   -1676.9456    22.509851    22.538242    22.288228    2.7385036    39.894135    359.04722 
   56000    794.87957   -4274.8561            0   -4210.8452   -1663.1471    22.509851    22.538242    22.288228    2.7992117    47.872869    351.06771 
   57000    771.55759   -4272.1369            0   -4210.0041    160.52766    22.509851    22.538242    22.288228    2.9038035    55.855731    343.11378 
   58000    763.03093   -4277.3343            0   -4215.8882   -1428.1655    22.509851    22.538242    22.288228    2.8541498     63.83693    335.14388 
   59000    794.83628   -4278.6882            0   -4214.6808   -781.26866    22.509851    22.538242    22.288228    2.9768253    71.816032    327.16193 
   60000    852.04166   -4277.4382            0   -4208.8241   -1211.6179    22.509851    22.538242    22.288228    2.6554089     79.79569    319.18276 
   61000    786.45672   -4278.3804            0   -4215.0478    -1698.856    22.509851    22.538242    22.288228    3.6862657    87.789095    311.25225 
   62000    773.83485   -4276.1205            0   -4213.8043    -252.3139    22.509851    22.538242    22.288228    2.6907378    95.776019    303.29073 
   63000    795.27417   -4275.9023            0   -4211.8596   -1078.5992    22.509851    22.538242    22.288228    2.3691924    103.76045    295.31822 
   64000    792.20023   -4274.2507            0   -4210.4555   -76.393466    22.509851    22.538242    22.288228    3.5187154     111.7287    287.30237 
   65000    771.57594   -4275.5994            0   -4213.4651    -1043.632    22.509851    22.538242    22.288228    3.8474339    119.70411    279.30959 
   66000    790.09222   -4277.9636            0   -4214.3382   -851.80151    22.509851    22.538242    22.288228    2.6913522    127.67738    271.31443 
   67000    814.97946   -4274.4215            0   -4208.7919   -449.48215    22.509851    22.538242    22.288228    3.5908765    135.64465    263.31021 
   68000    779.99736   -4276.8851            0   -4214.0726   -771.36218    22.509851    22.538242    22.288228    2.6687564     143.6398    255.35964 
   69000    807.39063   -4273.5263            0   -4208.5079   -407.04467    22.509851    22.538242    22.288228    3.4292697    151.68238    247.48177 
   70000    812.58197   -4274.9007            0   -4209.4642   -331.56736    22.509851    22.538242    22.288228    3.0628856    159.72948    239.59422 
   71000    756.33755   -4274.9286            0   -4214.0214   -430.13459    22.509851    22.538242    22.288228    2.3897785    167.74308    231.64521 
   72000    800.29231   -4270.9073            0   -4206.4605    492.05629    22.509851    22.538242    22.288228    2.6430413    175.74963    223.68134 
   73000    827.62556   -4275.9736            0   -4209.3256   -253.94515    22.509851    22.538242    22.288228    2.6485655    183.75809    215.71602 
   74000    800.34389   -4277.3971            0   -4212.9461   -770.64994    22.509851    22.538242    22.288228     2.987075    191.76442    207.74479 
   75000    807.56091     -4276.94            0   -4211.9078   -1230.3222    22.509851    22.538242    22.288228     2.614708     199.7679     199.7679 
   76000    828.59462     -4274.66            0    -4207.934    -629.4748    22.509851    22.538242    22.288228    3.0335373    207.77201    191.78955 
   77000     783.3634   -4277.8289            0   -4214.7454   -768.74371    22.509851    22.538242    22.288228    2.9709677    215.77929    183.81199 
   78000    779.68927   -4275.0038            0   -4212.2161   -799.96629    22.509851    22.538242    22.288228    2.2280524    223.78834    175.83369 
   79000    797.31571   -4275.4759            0   -4211.2688   -1047.4918    22.509851    22.538242    22.288228    2.4256298    231.78468    167.84408 
   80000    777.44141   -4274.4562            0   -4211.8496   -309.19194    22.509851    22.538242    22.288228    3.0543083    239.78573    159.85716 
   81000    811.27899   -4278.7213            0   -4213.3898    148.98416    22.509851    22.538242    22.288228    3.1287125    247.79304    151.87315 
   82000    793.32476   -4276.7469            0   -4212.8612   -1878.1015    22.509851    22.538242    22.288228    2.5940875    255.78467    143.87888 
   83000     826.5385   -4274.6592            0   -4208.0989    275.22994    22.509851    22.538242    22.288228    3.0178124    263.78158    135.88748 
   84000    770.72958   -4277.9079            0   -4215.8417   -1054.6511    22.509851    22.538242    22.288228    2.8848452    271.77029     127.8919 
   85000    810.81127   -4276.7736            0   -4211.4798   -1875.2358    22.509851    22.538242    22.288228    2.3965993    279.78693    119.90869 
   86000    789.31708   -4274.2384            0   -4210.6754    138.46928    22.509851    22.538242    22.288228    2.4310983    287.79918     111.9219 
   87000    808.26047   -4277.2647            0   -4212.1762   -802.07766    22.509851    22.538242    22.288228    3.5009366    295.80884    103.93284 
   88000    786.55706   -4275.4255            0   -4212.0848   -152.03626    22.509851    22.538242    22.288228    2.7734659     303.8084    95.939496 
   89000    804.59039    -4275.789            0   -4210.9961   -1816.3572    22.509851    22.538242    22.288228    2.8265783    311.81976    87.949162 
   90000    830.24265   -4273.0642            0   -4206.2055   -104.89385    22.509851    22.538242    22.288228    2.5396754    319.82721    79.956803 
   91000    780.88444   -4276.4227            0   -4213.5388   -428.63736    22.509851    22.538242    22.288228    2.2952316    327.83957    71.964784 
   92000     816.2739   -4278.2768            0   -4212.5431    -713.0673    22.509851    22.538242    22.288228    2.4735585    335.92144    63.985037 
   93000    831.18148   -4271.7464            0   -4204.8122    380.87936    22.509851    22.538242    22.288228    2.6081356    343.93895    55.990061 
   94000    782.82684   -4276.6725            0   -4213.6322   -868.02332    22.509851    22.538242    22.288228    2.7440188    351.96138    47.994734 
   95000    831.09958   -4278.0406            0   -4211.1129    -1573.069    22.509851    22.538242    22.288228    2.5463073    359.98413    39.998237 
   96000    836.96851   -4275.9979            0   -4208.5976     133.7379    22.509851    22.538242    22.288228    3.2648123    367.99427    31.999502 
   97000    788.72149   -4279.3769            0   -4215.8619    -3007.534    22.509851    22.538242    22.288228    2.6903895     376.0042    24.000268 
   98000    782.46158   -4273.7615            0   -4210.7505    867.34082    22.509851    22.538242    22.288228    2.8801881    384.01624    16.000677 
   99000    842.19926   -4278.5324            0   -4210.7109   -188.45619    22.509851    22.538242    22.288228    2.5816134    392.02323    8.0004741 
  100000    777.88834   -4277.3603            0   -4214.7177   -714.83705    22.509851    22.538242    22.288228    2.9301972    400.10708            0 
Loop time of 400.107 on 1 procs for 50000 steps with 624 atoms

Performance: 10.797 ns/day, 2.223 hours/ns, 124.967 timesteps/s
99.9% CPU use with 1 MPI tasks x no OpenMP threads

MPI task timing breakdown:
Section |  min time  |  avg time  |  max time  |%varavg| %total
---------------------------------------------------------------
Pair    | 310.8      | 310.8      | 310.8      |   0.0 | 77.68
Kspace  | 83.61      | 83.61      | 83.61      |   0.0 | 20.90
Neigh   | 3.3464     | 3.3464     | 3.3464     |   0.0 |  0.84
Comm    | 1.4112     | 1.4112     | 1.4112     |   0.0 |  0.35
Output  | 0.00156    | 0.00156    | 0.00156    |   0.0 |  0.00
Modify  | 0.55705    | 0.55705    | 0.55705    |   0.0 |  0.14
Other   |            | 0.3769     |            |       |  0.09

Nlocal:        624.000 ave         624 max         624 min
Histogram: 1 0 0 0 0 0 0 0 0 0
Nghost:        6773.00 ave        6773 max        6773 min
Histogram: 1 0 0 0 0 0 0 0 0 0
Neighs:        197680.0 ave      197680 max      197680 min
Histogram: 1 0 0 0 0 0 0 0 0 0

Total # of neighbors = 197680
Ave neighs/atom = 316.79487
Neighbor list builds = 870
Dangerous builds = 0

# Stage 2: main_nvt_simulation
unfix int
dump     atom_info all custom 1000 ca.lammpstrj element x y z q id type vx vy vz
dump_modify     atom_info append yes
dump_modify     atom_info sort id
dump_modify     atom_info element Ca Na O Cl
restart         0
fix             int all nvt temp 800 800 0.5
run             2000000
PPPM initialization ...
  using 12-bit tables for long-range coulomb (../kspace.cpp:339)
  G vector (1/distance) = 0.26768902
  grid = 20 24 20
  stencil order = 5
  estimated absolute RMS force accuracy = 0.00014209178
  estimated relative force accuracy = 9.8677279e-06
  using double precision KISS FFT
  3d grid and FFT values/proc = 22599 9600
Per MPI rank memory allocation (min/avg/max) = 7.801 | 7.801 | 7.801 Mbytes
Step Temp E_pair E_mol TotEng Press Lx Ly Lz Fmax CPU CPULeft 
  100000    777.88834   -4277.3603            0   -4214.7177   -714.83705    22.509851    22.538242    22.288228    2.9301972            0            0 
  101000    835.95748   -4275.6988            0     -4208.38   -651.65727    22.509851    22.538242    22.288228    2.2991054    8.0109251    16013.841 
  102000    803.66954   -4273.9613            0   -4209.2426   -539.75229    22.509851    22.538242    22.288228    3.3598303    16.013955    15997.941 
  103000    763.36779   -4274.3204            0   -4212.8471   -708.57737    22.509851    22.538242    22.288228    2.4387019    24.003217    15978.142 
  104000    816.08545   -4279.6709            0   -4213.9523   -1638.8771    22.509851    22.538242    22.288228    4.1147396    31.985972        15961 
  105000    789.89975   -4271.2756            0   -4207.6658   -851.17619    22.509851    22.538242    22.288228    2.8702845    39.990224      15956.1 
  106000     788.9269   -4277.7576            0    -4214.226   -1513.5209    22.509851    22.538242    22.288228    3.0557422    47.979322    15945.128 
  107000     799.1082   -4277.4988            0   -4213.1474   -1413.0622    22.509851    22.538242    22.288228    3.0077391    56.039718    15955.309 
  108000    763.75561   -4270.6387            0   -4209.1342   -634.15865    22.509851    22.538242    22.288228    3.3462415    64.029934    15943.454 
  109000    778.90879   -4277.2653            0   -4214.5405   -154.93557    22.509851    22.538242    22.288228    2.8387193    72.008271     15929.83 
  110000    781.78187   -4275.5866            0   -4212.6305   -121.46853    22.509851    22.538242    22.288228    3.4222658    79.992529    15918.513 
  111000    828.91383   -4276.0416            0     -4209.29   -779.64447    22.509851    22.538242    22.288228    2.9685286    87.988968    15910.005 
  112000    784.46959   -4276.3721            0   -4213.1995   -797.68302    22.509851    22.538242    22.288228     2.985204    96.086963    15918.407 
  113000    847.73519   -4274.1708            0   -4205.9035   -131.38166    22.509851    22.538242    22.288228    2.9336985    104.08583    15909.119 
  114000    805.40246   -4275.4409            0   -4210.5826   -1062.0029    22.509851    22.538242    22.288228    2.6461866    112.08229    15899.673 
  115000    765.33723   -4275.3184            0   -4213.6865     122.9616    22.509851    22.538242    22.288228    4.2483748    120.09658    15892.781 
  116000    831.93885   -4273.7569            0   -4206.7617   -275.50674    22.509851    22.538242    22.288228    3.2296404    128.07977    15881.891 
  117000     769.6174   -4276.2322            0   -4214.2556   -184.05986    22.509851    22.538242    22.288228    2.8161687    136.05785    15870.748 
  118000    808.46212   -4276.9827            0    -4211.878   -1328.2502    22.509851    22.538242    22.288228    2.7073018    144.04081    15860.493 
  119000    834.53507   -4275.7092            0   -4208.5049   -1060.6121    22.509851    22.538242    22.288228    2.9667109    152.01254    15849.308 
  120000    807.05324   -4281.1385            0   -4216.1473   -994.57984    22.509851    22.538242    22.288228    3.7026576    160.00242    15840.239 
  121000    792.78698   -4275.0263            0   -4211.1839   -584.46437    22.509851    22.538242    22.288228     2.766795    167.97888    15830.009 
  122000    794.96015   -4275.1652            0   -4211.1478   -333.50673    22.509851    22.538242    22.288228    3.4916226    175.97029    15821.329 
  123000    816.56968   -4278.3319            0   -4212.5743   -1149.6883    22.509851    22.538242    22.288228    3.1523415    183.94823     15811.55 
  124000    763.42689   -4276.6924            0   -4215.2143   -1808.9645    22.509851    22.538242    22.288228    2.7488079     191.9196     15801.38 
  125000    780.27864   -4272.7931            0    -4209.958    75.788363    22.509851    22.538242    22.288228    3.2111662    199.89941    15792.053 
  126000    779.81927   -4273.9719            0   -4211.1738   -113.95646    22.509851    22.538242    22.288228    3.1412756    207.87941    15782.844 
  127000    761.96591   -4276.6701            0   -4215.3097   -1740.8451    22.509851    22.538242    22.288228    2.7556711     215.8543    15773.353 
  128000    788.10528   -4274.0721            0   -4210.6067   -900.64193    22.509851    22.538242    22.288228    2.4588947    223.83741    15764.549 
  129000    808.88429   -4276.2899            0   -4211.1512   -953.82339    22.509851    22.538242    22.288228    3.4488449    231.80862    15754.993 
  130000    770.72788   -4281.1359            0   -4219.0699    -2673.663    22.509851    22.538242    22.288228    2.4397723     239.7763    15745.311 
  131000     787.5897    -4275.956            0   -4212.5321   -201.20275    22.509851    22.538242    22.288228    2.7495438    247.74752    15735.963 
  132000    815.53783   -4275.6609            0   -4209.9864    692.43147    22.509851    22.538242    22.288228    2.5679761    255.72253    15726.935 
  133000    777.09542   -4278.4702            0   -4215.8914   -2332.0617    22.509851    22.538242    22.288228    2.6758127    263.69065    15717.561 
  134000     794.8636    -4275.958            0   -4211.9484   -905.74949    22.509851    22.538242    22.288228    3.0312913    271.67276    15709.078 
  135000    825.25431   -4277.1049            0    -4210.648   -1634.0287    22.509851    22.538242    22.288228    2.5137083    279.65408    15700.579 
  136000     787.4346   -4278.8174            0    -4215.406   -1244.6699    22.509851    22.538242    22.288228    2.8497871    287.62461    15691.521 
  137000    770.31864   -4277.9353            0   -4215.9023   -2424.3497    22.509851    22.538242    22.288228    2.6385846    295.59597    15682.564 
  138000    828.35544   -4276.2717            0    -4209.565    33.247795    22.509851    22.538242    22.288228    2.9106446    303.59457    15675.067 
  139000    760.80853   -4276.2719            0   -4215.0047   -2734.0995    22.509851    22.538242    22.288228    2.6354489    311.57667    15666.714 
  140000    811.54831   -4277.9328            0   -4212.5795   -35.064192    22.509851    22.538242    22.288228    2.3349815    319.54843    15657.873 
  141000    809.13057   -4275.2396            0   -4210.0811   -577.27225    22.509851    22.538242    22.288228    2.6843602    327.54214    15650.123 
  142000    793.46125    -4278.838            0   -4214.9413   -1236.5549    22.509851    22.538242    22.288228    2.7231324    335.52337     15641.78 
  143000    807.47764   -4272.7532            0   -4207.7277    170.98387    22.509851    22.538242    22.288228    2.9629318    343.49316    15632.933 
  144000    790.02684   -4274.4581            0   -4210.8379   -1148.4612    22.509851    22.538242    22.288228    2.7627835    351.47372    15624.605 
  145000    767.14761   -4274.7824            0   -4213.0047   -897.79311    22.509851    22.538242    22.288228    3.6128688    359.45565    15616.351 
  146000    809.26035   -4276.8135            0   -4211.6445    490.29961    22.509851    22.538242    22.288228    3.0295691     367.4372    15608.093 
  147000    788.36705   -4275.2896            0   -4211.8031   -810.72274    22.509851    22.538242    22.288228    4.0950958    375.41482    15599.684 
  148000    781.75881   -4275.5898            0   -4212.6355   -690.84792    22.509851    22.538242    22.288228    3.5538341    383.39152    15591.255 
  149000    825.26336   -4274.8636            0   -4208.4059   -443.11465    22.509851    22.538242    22.288228    2.1925167    391.36793    15582.833 
  150000     795.1131   -4275.5639            0   -4211.5342   -97.311945    22.509851    22.538242    22.288228    2.3330872    399.35703    15574.924 
  151000    821.02477   -4279.9975            0   -4213.8811   -2942.5343    22.509851    22.538242    22.288228    2.6667017    407.33079    15566.426 
  152000     800.9201   -4272.7498            0   -4208.2525   -650.36102    22.509851    22.538242    22.288228    2.7094167    415.30282    15557.883 
  153000    789.82714   -4273.9566            0   -4210.3526    -1081.668    22.509851    22.538242    22.288228    3.4839357     423.3277    15551.302 
  154000    789.56224   -4276.3072            0   -4212.7245   -1179.7724    22.509851    22.538242    22.288228    3.3002401    431.30951    15543.117 
  155000    751.89165   -4273.5922            0   -4213.0431   -379.04764    22.509851    22.538242    22.288228    2.7317458       439.29    15534.892 
  156000    814.16357   -4273.1333            0   -4207.5695    230.07875    22.509851    22.538242    22.288228     2.625451    447.28406    15527.147 
  157000    797.14251   -4278.3819            0   -4214.1887   -1291.7068    22.509851    22.538242    22.288228    2.3267962    455.27464    15519.274 
  158000    807.57413   -4277.7584            0   -4212.7252   -1547.3513    22.509851    22.538242    22.288228    2.3579297    463.26194    15511.288 
  159000    798.31737   -4273.6697            0   -4209.3819    93.073962    22.509851    22.538242    22.288228    2.8988297    471.24886    15503.289 
  160000    795.36139   -4281.7945            0   -4217.7448   -3118.6323    22.509851    22.538242    22.288228    2.8233985    479.24082    15495.453 
  161000    845.27737   -4278.4878            0   -4210.4184    -1298.705    22.509851    22.538242    22.288228    2.5202374     487.2733      15488.9 
  162000    778.90022   -4273.3969            0   -4210.6728   -499.07714    22.509851    22.538242    22.288228     2.905246    495.24335    15480.349 
  163000    786.36386   -4280.1447            0   -4216.8195   -1406.1638    22.509851    22.538242    22.288228    2.7858642    503.21034    15471.721 
  164000    776.50937   -4275.0294            0   -4212.4978   -1198.5092    22.509851    22.538242    22.288228    3.0399109    511.18131    15463.235 
  165000    773.35272    -4273.106            0   -4210.8286   -46.107408    22.509851    22.538242    22.288228    2.5620332     519.1588    15454.958 
  166000    791.34422   -4276.2833            0    -4212.557    655.05585    22.509851    22.538242    22.288228    3.1045734    527.13997    15446.799 
  167000    772.44071   -4277.2108            0   -4215.0069    -1217.832    22.509851    22.538242    22.288228    2.6429787    535.11928    15438.591 
  168000    808.52718   -4273.1304            0   -4208.0205    815.37494    22.509851    22.538242    22.288228    3.1680829    543.11602    15430.885 
  169000    806.14009   -4277.0496            0   -4212.1319   -1017.7306    22.509851    22.538242    22.288228    2.9175523    551.10557    15422.969 
  170000    816.88203   -4278.0785            0   -4212.2958   -1575.9826    22.509851    22.538242    22.288228    3.3153629    559.07685    15414.547 
  171000    814.83836   -4275.3522            0    -4209.734   -671.04605    22.509851    22.538242    22.288228    3.9067646    567.05873    15406.427 
  172000    840.23828   -4274.3536            0     -4206.69   -333.35555    22.509851    22.538242    22.288228    3.0457178    575.03595    15398.185 
  173000    742.82447   -4273.7995            0   -4213.9805   -743.23464    22.509851    22.538242    22.288228    2.6378251    583.04347     15390.75 
  174000    835.40537   -4277.6271            0   -4210.3527   -648.09407    22.509851    22.538242    22.288228    3.0727138    591.02154    15382.534 
  175000    874.12341   -4277.0536            0   -4206.6613   -152.69398    22.509851    22.538242    22.288228    2.9714291    599.00738    15374.523 
  176000    795.77185   -4277.4174            0   -4213.3346   -1667.7216    22.509851    22.538242    22.288228    2.6879101    606.99333    15366.515 
  177000    787.37493   -4273.1942            0   -4209.7877   -621.28826    22.509851    22.538242    22.288228    2.4458382    614.99015     15358.78 
  178000    802.78579   -4276.4884            0   -4211.8408   -664.80277    22.509851    22.538242    22.288228    3.3847736    622.97497    15350.742 
  179000    818.40264   -4281.3865            0   -4215.4813   -1466.8863    22.509851    22.538242    22.288228    2.6648975    630.94003    15342.225 
  180000    791.94159   -4273.0918            0   -4209.3175   -313.80373    22.509851    22.538242    22.288228     2.753371    638.90674    15333.762 
  181000    794.49802   -4276.7267            0   -4212.7465   -866.01946    22.509851    22.538242    22.288228    2.9552849    646.87709    15325.397 
  182000    758.46097   -4277.0179            0   -4215.9397   -1926.4482    22.509851    22.538242    22.288228    2.9472708    654.87108    15317.594 
  183000    812.18513   -4274.4907            0   -4209.0862   -645.84324    22.509851    22.538242    22.288228    2.5375963    662.84479    15309.319 
  184000    776.00165   -4274.8345            0   -4212.3438   -2013.6599    22.509851    22.538242    22.288228    3.0244567    670.83298    15301.381 
  185000    808.56492   -4279.9044            0   -4214.7914   -2953.7407    22.509851    22.538242    22.288228    2.4868726    678.83301    15293.708 
  186000    825.23172   -4277.6627            0   -4211.2076   -739.96833    22.509851    22.538242    22.288228    2.7211373    686.81251    15285.571 
  187000    820.19233   -4276.7628            0   -4210.7134   -1268.6038    22.509851    22.538242    22.288228    2.9655739    694.80184    15277.654 
  188000    777.55753   -4278.1879            0   -4215.5719   -1729.3956    22.509851    22.538242    22.288228    2.6031613    702.80746    15270.089 
  189000    830.93546   -4275.9706            0   -4209.0562   -586.37798    22.509851    22.538242    22.288228    3.0628099    710.78236    15261.855 
  190000    804.36601   -4276.0749            0   -4211.3001   -1948.4056    22.509851    22.538242    22.288228    3.2650878    718.77929    15254.094 
  191000    779.27433   -4275.2433            0    -4212.489   -462.22957    22.509851    22.538242    22.288228    3.1556022    726.77236    15246.247 
  192000    803.68281   -4275.6777            0   -4210.9578   -346.69268    22.509851    22.538242    22.288228    2.9210464    734.74261    15237.923 
  193000    785.66389   -4271.2771            0   -4208.0083   -11.805125    22.509851    22.538242    22.288228    2.5425407    742.71702    15229.692 
  194000    792.96133   -4278.1795            0   -4214.3231   -1306.8847    22.509851    22.538242    22.288228    3.8144449    750.68908    15221.419 
  195000    786.09128   -4274.1696            0   -4210.8664   -1509.2869    22.509851    22.538242    22.288228    3.2330935    758.65806    15213.091 
  196000    834.11081   -4275.5238            0   -4208.3536   -2248.7931    22.509851    22.538242    22.288228    2.6078962    766.62638    15204.757 
  197000    784.78875   -4276.5556            0   -4213.3573   -835.97143    22.509851    22.538242    22.288228    3.1772466    774.60377    15196.608 
  198000    779.88308   -4273.0226            0   -4210.2193    512.84377    22.509851    22.538242    22.288228    3.1366455    782.56612    15188.171 
  199000    801.79612   -4273.0052            0   -4208.4373    1251.0754    22.509851    22.538242    22.288228    3.3165044    790.54272    15180.017 
  200000    771.82889   -4275.4793            0   -4213.3246   -1282.3569    22.509851    22.538242    22.288228    2.7641997    798.50721    15171.637 
  201000    826.96159     -4276.22            0   -4209.6255   -507.79352    22.509851    22.538242    22.288228    2.6462223    806.47321    15163.293 
  202000    840.46712   -4271.8455            0   -4204.1635     240.1168    22.509851    22.538242    22.288228    2.8487062    814.44712    15155.104 
  203000    804.34415   -4276.0747            0   -4211.3017   -604.52757    22.509851    22.538242    22.288228    4.1159834    822.41119    15146.738 
  204000    796.92608   -4278.5991            0   -4214.4234   -546.19009    22.509851    22.538242    22.288228    2.3656133    830.40239    15138.874 
  205000    842.85771   -4276.5186            0    -4208.644   -428.08945    22.509851    22.538242    22.288228    2.9127299    838.36578    15130.506 
  206000    808.94037   -4276.1317            0   -4210.9885   -1498.0957    22.509851    22.538242    22.288228    3.2756011    846.34269    15122.387 
  207000    783.22639   -4277.0899            0   -4214.0174   -1834.9327    22.509851    22.538242    22.288228    2.6863461    854.31595    15114.206 
  208000    810.49589   -4274.1674            0    -4208.899   -302.81861    22.509851    22.538242    22.288228    2.7417771    862.28122     15105.89 
  209000     780.4441   -4277.4232            0   -4214.5748   -1425.0751    22.509851    22.538242    22.288228    2.5824138    870.25565    15097.738 
  210000    803.74741   -4277.9761            0   -4213.2511     -470.421    22.509851    22.538242    22.288228    3.0922505    878.22895     15089.57 
  211000     819.6404   -4275.7661            0   -4209.7612    -678.6981    22.509851    22.538242    22.288228    2.4442642    886.20198    15081.401 
  212000    806.88902   -4276.8138            0   -4211.8358   -923.64372    22.509851    22.538242    22.288228    2.5992321    894.18855    15073.464 
  213000    762.43418   -4273.3883            0   -4211.9902   -419.61486    22.509851    22.538242    22.288228    3.3705991    902.18438    15065.681 
  214000    796.71851   -4275.9227            0   -4211.7637    -573.8228    22.509851    22.538242    22.288228    3.1108434    910.22313    15058.604 
  215000    759.55127   -4273.8131            0   -4212.6472   -559.32957    22.509851    22.538242    22.288228    3.0386851    918.20175    15050.524 
  216000    808.53773   -4276.2228            0    -4211.112   -467.60686    22.509851    22.538242    22.288228    3.0594601    926.17925    15042.429 
  217000     822.7364   -4274.7646            0   -4208.5104    -1420.422    22.509851    22.538242    22.288228    3.3499414    934.15153    15034.251 
  218000    765.16717   -4276.4162            0    -4214.798   -2142.9501    22.509851    22.538242    22.288228    2.6745099    942.11284    15025.901 
  219000    828.37734   -4277.3207            0   -4210.6122     -2227.28    22.509851    22.538242    22.288228    2.4693423    950.07663    15017.598 
  220000    802.02522   -4273.7293            0    -4209.143   -276.62891    22.509851    22.538242    22.288228    3.0677407    958.05883    15009.588 
  221000    794.63047   -4277.9269            0    -4213.936   -624.53291    22.509851    22.538242    22.288228    2.5903464    966.03683    15001.514 
  222000    846.59196   -4275.6897            0   -4207.5144   -526.77594    22.509851    22.538242    22.288228    3.6056038    974.07354    14994.345 
  223000    817.85809   -4276.4221            0   -4210.5607   -330.03901    22.509851    22.538242    22.288228    3.8004811    982.04708    14986.198 
  224000    791.41474   -4276.9228            0   -4213.1909   -1811.8326    22.509851    22.538242    22.288228    2.7349997    990.01588    14977.982 
  225000    808.84381   -4272.5234            0    -4207.388    468.59654    22.509851    22.538242    22.288228    3.3398274    997.98463    14969.769 
  226000    840.10781   -4275.6804            0   -4208.0273   -1219.8558    22.509851    22.538242    22.288228    2.9061871    1005.9591    14961.646 
  227000    769.82706   -4274.2916            0   -4212.2982   -1056.4268    22.509851    22.538242    22.288228    2.6920781    1013.9252    14953.401 
  228000    789.49197   -4277.5369            0   -4213.9598    -2236.531    22.509851    22.538242    22.288228    2.7217582    1021.8939    14945.199 
  229000    860.10419   -4278.5271            0   -4209.2638    -1078.571    22.509851    22.538242    22.288228    2.9198064    1029.8676    14937.072 
  230000    786.10359   -4274.9191            0   -4211.6149   -712.10278    22.509851    22.538242    22.288228    2.5416637    1037.8357    14928.867 
  231000    780.60138   -4277.4977            0   -4214.6366    -1191.934    22.509851    22.538242    22.288228    2.3290827     1045.808    14920.726 
  232000    781.20329   -4273.1384            0   -4210.2288    260.94761    22.509851    22.538242    22.288228    3.5488815    1053.7842    14912.643 
  233000    811.00356   -4276.7148            0   -4211.4054    455.17869    22.509851    22.538242    22.288228    2.8834146    1061.7596     14904.55 
  234000    818.28556   -4279.4044            0   -4213.5086   -1450.8819    22.509851    22.538242    22.288228    2.7379955    1069.7326    14896.425 
  235000    769.59377   -4278.3665            0   -4216.3918   -1780.9245    22.509851    22.538242    22.288228     2.918819    1077.7056    14888.303 
  236000    839.22698   -4276.9371            0    -4209.355   -2460.0669    22.509851    22.538242    22.288228    3.2995959    1085.6748    14880.131 
  237000    784.35244   -4276.6156            0   -4213.4524   -1464.9603    22.509851    22.538242    22.288228    2.4049542    1093.6473    14872.007 
  238000    776.95055   -4278.1187            0   -4215.5516   -1692.1602    22.509851    22.538242    22.288228    3.2976072    1101.6273    14863.986 
  239000    783.84409   -4274.8414            0   -4211.7192   -922.15691    22.509851    22.538242    22.288228    2.9277946    1109.6093    14855.992 
  240000    845.10241   -4276.4598            0   -4208.4045   -964.60272    22.509851    22.538242    22.288228    2.9316731    1117.5821    14847.877 
  241000    796.86418    -4276.994            0   -4212.8232   -1784.7817    22.509851    22.538242    22.288228    3.2855139    1125.5719    14839.987 
  242000     757.4368   -4274.8278            0   -4213.8321   -2047.1159    22.509851    22.538242    22.288228    3.0697072    1133.6172    14832.822 
  243000    833.43802   -4274.8179            0   -4207.7019    185.74148    22.509851    22.538242    22.288228    2.7195425    1141.5835    14824.619 
  244000    802.17752   -4276.7178            0   -4212.1192   -753.32894    22.509851    22.538242    22.288228    2.5816746    1149.5527    14816.457 
  245000    754.79072   -4273.1992            0   -4212.4166   -788.75856    22.509851    22.538242    22.288228    3.0882087      1157.53    14808.401 
  246000    831.67738   -4271.6023            0   -4204.6281    815.04048    22.509851    22.538242    22.288228    3.3752493    1165.5017    14800.275 
  247000    802.16457   -4276.2827            0   -4211.6852   -692.11482    22.509851    22.538242    22.288228    3.0670821    1173.4847    14792.294 
  248000    790.19813   -4277.0462            0   -4213.4123    278.87789    22.509851    22.538242    22.288228    2.6324931    1181.4662    14784.293 
  249000    844.15529   -4276.4169            0   -4208.4379   -214.42974    22.509851    22.538242    22.288228    3.5788669    1189.4389    14776.184 
  250000    807.43954   -4277.0642            0   -4212.0418   -507.09219    22.509851    22.538242    22.288228     5.030471     1197.413    14768.094 
  251000    790.54531     -4277.67            0   -4214.0081   -1401.3672    22.509851    22.538242    22.288228    2.7537432    1205.3888    14760.026 
  252000    816.20073    -4275.868            0   -4210.1401   -68.633769    22.509851    22.538242    22.288228    2.6247683    1213.3727    14752.058 
  253000    756.50348   -4272.3125            0    -4211.392   -874.29982    22.509851    22.538242    22.288228    3.1572432    1221.3503    14744.014 
  254000    790.59036   -4278.0958            0   -4214.4303    -1609.731    22.509851    22.538242    22.288228    3.6682972    1229.3255    14735.941 
  255000      824.229   -4274.6807            0   -4208.3063    39.991929    22.509851    22.538242    22.288228    3.2343761    1237.2945    14727.796 
  256000    771.69434   -4277.2617            0   -4215.1179   -2344.5007    22.509851    22.538242    22.288228    2.8642118    1245.2703    14719.733 
  257000    812.67875   -4278.4618            0   -4213.0175   -1408.6932    22.509851    22.538242    22.288228    2.6321763    1253.2428    14711.634 
  258000    803.90895    -4274.281            0    -4209.543    685.03384    22.509851    22.538242    22.288228    3.4069303    1261.2136    14703.516 
  259000    763.92939   -4279.5202            0   -4218.0017   -2114.9159    22.509851    22.538242    22.288228    2.6363126    1269.1785    14695.331 
  260000    793.39855    -4276.255            0   -4212.3634   -306.25709    22.509851    22.538242    22.288228    2.6976173     1277.165    14687.397 
  261000    772.47627   -4272.2996            0   -4210.0928   -238.02005    22.509851    22.538242    22.288228    3.0873976    1285.1819     14679.81 
  262000    791.68827   -4281.3882            0   -4217.6343    -2213.338    22.509851    22.538242    22.288228    2.1494413    1293.2359    14672.639 
  263000    788.33632   -4276.7679            0   -4213.2839    32.045293    22.509851    22.538242    22.288228    2.5450377    1301.2343     14664.83 
  264000    816.75982   -4276.5469            0    -4210.774   -246.88671    22.509851    22.538242    22.288228    2.2377877    1309.2179    14656.854 
  265000    811.16765   -4276.8844            0   -4211.5619   -1333.4618    22.509851    22.538242    22.288228    3.1204691    1317.3438     14650.46 
  266000     776.2413   -4277.9894            0   -4215.4794   -1876.0215    22.509851    22.538242    22.288228    4.5447965    1325.4562    14643.896 
  267000    846.09698   -4276.4779            0   -4208.3425    433.42602    22.509851    22.538242    22.288228    2.4390469    1333.5098    14636.668 
  268000    812.25823    -4276.847            0   -4211.4366   -394.78222    22.509851    22.538242    22.288228    2.9516236    1341.5574    14629.365 
  269000    776.47781   -4274.6556            0   -4212.1265   -521.84277    22.509851    22.538242    22.288228     2.859443    1349.5432    14621.382 
  270000    800.56757   -4275.5948            0   -4211.1258   -615.27735    22.509851    22.538242    22.288228    3.0065211    1357.5226    14613.331 
  271000    834.29939   -4274.0849            0   -4206.8995   -1381.5293    22.509851    22.538242    22.288228    3.0861648     1365.508    14605.345 
  272000    781.72528   -4276.3735            0   -4213.4219   -1107.2988    22.509851    22.538242    22.288228    2.7400839    1373.4918    14597.343 
  273000    773.42984   -4274.5549            0   -4212.2713   -391.94375    22.509851    22.538242    22.288228    2.8777154    1381.4702    14589.284 
  274000    852.55489   -4274.5742            0   -4205.9188   -547.90105    22.509851    22.538242    22.288228    3.7218562    1389.4534    14581.275 
  275000    800.90015   -4275.2876            0   -4210.7918   -969.30026    22.509851    22.538242    22.288228    3.2281879    1397.4789    14573.709 
  276000    804.96263   -4279.5313            0   -4214.7084   -1464.0268    22.509851    22.538242    22.288228    2.6042103    1405.4626    14565.704 
  277000    831.39466   -4274.6598            0   -4207.7083   -60.815354    22.509851    22.538242    22.288228     2.701471    1413.4392    14557.625 
  278000    780.53022   -4274.4377            0   -4211.5823   -503.24579    22.509851    22.538242    22.288228     3.000436    1421.4175    14549.566 
  279000    783.21973    -4276.285            0   -4213.2131    380.97882    22.509851    22.538242    22.288228    3.0147956    1429.3968    14541.517 
  280000    822.07645   -4275.7236            0   -4209.5226   -328.24679    22.509851    22.538242    22.288228    3.0300837    1437.3726    14533.434 
  281000    840.56888   -4271.4435            0   -4203.7533    484.10027    22.509851    22.538242    22.288228    2.8330348    1445.3593    14525.462 
  282000    802.92424    -4276.244            0   -4211.5853    492.68582    22.509851    22.538242    22.288228    2.9841386    1453.3401     14517.43 
  283000    796.91185   -4277.6036            0   -4213.4291   -1473.7771    22.509851    22.538242    22.288228    2.8577276    1461.3186    14509.376 
  284000    826.69134   -4273.8087            0    -4207.236   -453.21883    22.509851    22.538242    22.288228    2.6551648    1469.2932    14501.285 
  285000    770.92156   -4275.4849            0   -4213.4033    -1234.425    22.509851    22.538242    22.288228    2.4130969    1477.2775     14493.29 
  286000    798.62429   -4277.1387            0   -4212.8262   -831.87217    22.509851    22.538242    22.288228    2.5434458    1485.2382    14485.065 
  287000     819.2685   -4273.7307            0   -4207.7558    -934.3783    22.509851    22.538242    22.288228    3.4778369    1493.2126    14476.976 
  288000    824.29578    -4276.375            0   -4209.9953    49.296655    22.509851    22.538242    22.288228    2.6380007    1501.1766    14468.787 
  289000    796.64998   -4278.8135            0     -4214.66   -1620.5654    22.509851    22.538242    22.288228    2.7528861    1509.1419    14460.614 
  290000    808.57038   -4272.9285            0   -4207.8151   -771.67006    22.509851    22.538242    22.288228    2.4311014    1517.1143     14452.51 
  291000    744.01284   -4270.0653            0   -4210.1507   -1066.2068    22.509851    22.538242    22.288228    2.5179975    1525.0894    14444.433 
  292000    765.96078   -4274.0325            0   -4212.3504   -1306.2663    22.509851    22.538242    22.288228    2.9892287    1533.0573     14436.29 
  293000    776.99775   -4278.1196            0   -4215.5487   -1939.4361    22.509851    22.538242    22.288228    2.6626175    1541.0286    14428.179 
  294000    801.23661    -4275.567            0   -4211.0442   -1446.7439    22.509851    22.538242    22.288228    2.5443527    1548.9914    14419.992 
  295000    810.84583   -4275.0347            0    -4209.738   -750.92517    22.509851    22.538242    22.288228    2.8707563    1556.9605    14411.865 
  296000    755.77142   -4277.5914            0   -4216.7299   -1484.6833    22.509851    22.538242    22.288228    2.6136456    1564.9251    14403.698 
  297000    799.70449   -4272.3064            0    -4207.907    158.02732    22.509851    22.538242    22.288228    2.5507628    1572.8937    14395.571 
  298000    809.36765   -4277.3607            0    -4212.183   -865.83866    22.509851    22.538242    22.288228    2.7664626    1580.8623    14387.444 
  299000    795.18751   -4277.9129            0   -4213.8772   -2040.0086    22.509851    22.538242    22.288228    2.4794167    1588.8344     14379.35 
  300000    861.08801   -4276.4285            0   -4207.0859   -247.13286    22.509851    22.538242    22.288228    4.0172121    1596.8155    14371.339 
  301000    787.36815    -4274.619            0    -4211.213   -640.79678    22.509851    22.538242    22.288228    2.9870552    1604.7938    14363.304 
  302000    783.95007   -4276.0913            0   -4212.9606   -1201.0053    22.509851    22.538242    22.288228    2.5371262    1612.7578    14355.141 
  303000    816.22387   -4272.0304            0   -4206.3007   -681.94007    22.509851    22.538242    22.288228     2.875154    1620.7305    14347.058 
  304000    812.16191   -4277.5619            0   -4212.1593   -160.87558    22.509851    22.538242    22.288228    3.7111563    1628.6953    14338.906 
  305000    778.85864   -4275.4547            0   -4212.7339   -1775.8912    22.509851    22.538242    22.288228    3.0609504    1636.6701    14330.843 
  306000    885.70746    -4275.712            0   -4204.3868   -1075.9621    22.509851    22.538242    22.288228    3.5834319    1644.6413     14322.75 
  307000    774.11823   -4272.2628            0   -4209.9238   -491.86918    22.509851    22.538242    22.288228    2.4320859    1652.6191    14314.715 
  308000    804.77187   -4278.0908            0   -4213.2832    315.51672    22.509851    22.538242    22.288228     3.023837    1660.5894    14306.616 
  309000    802.69029    -4276.742            0   -4212.1021   -813.01101    22.509851    22.538242    22.288228    2.6151125    1668.5532    14298.463 
  310000    842.10007    -4274.855            0   -4207.0415    33.851912    22.509851    22.538242    22.288228    3.1541288    1676.5228    14290.361 
  311000    770.97968   -4276.8415            0   -4214.7553    -1491.043    22.509851    22.538242    22.288228    3.4625765     1684.491    14282.248 
  312000    825.14361    -4277.232            0   -4210.7839   -526.17884    22.509851    22.538242    22.288228    2.4625717    1692.4619     14274.16 
  313000    815.18521   -4274.2959            0   -4208.6498   -678.84299    22.509851    22.538242    22.288228    3.7935894    1700.4325     14266.07 
  314000    760.38237   -4276.5641            0   -4215.3313   -1304.0722    22.509851    22.538242    22.288228    3.2303421    1708.3941    14257.906 
  315000    811.28047   -4274.2651            0   -4208.9335    -1988.032    22.509851    22.538242    22.288228    2.4593169    1716.3586    14249.768 
  316000    815.66479   -4275.7621            0   -4210.0773    -2352.266    22.509851    22.538242    22.288228    3.2297963    1724.3237    14241.637 
  317000    802.45759   -4276.9488            0   -4212.3276   -1332.7977    22.509851    22.538242    22.288228    3.2766063    1732.2942    14233.551 
  318000    781.95002   -4277.5369            0   -4214.5672   -1968.6693    22.509851    22.538242    22.288228    2.1843075    1740.2682    14225.495 
  319000     831.7463   -4278.2406            0   -4211.2608   -1841.4202    22.509851    22.538242    22.288228    2.9280734    1748.2349    14217.381 
  320000    824.18057   -4275.8361            0   -4209.4656   -1331.5262    22.509851    22.538242    22.288228    2.7741312    1756.2025    14209.275 
  321000    750.55877   -4276.2932            0   -4215.8514   -1208.6348    22.509851    22.538242    22.288228    2.6264848    1764.1683    14201.156 
  322000     792.9303   -4274.4743            0   -4210.6204   -327.83914    22.509851    22.538242    22.288228    2.6037701    1772.2075    14193.626 
  323000    807.42661   -4276.0004            0   -4210.9791   -1358.5134    22.509851    22.538242    22.288228    3.3806646    1780.1796    14185.557 
  324000    775.75408   -4274.4098            0    -4211.939   -1460.9923    22.509851    22.538242    22.288228    2.8581848    1788.1384    14177.383 
  325000    808.88714   -4276.2091            0   -4211.0702   -830.29294    22.509851    22.538242    22.288228    2.3651434    1796.1091    14169.305 
  326000    792.33064   -4277.1449            0   -4213.3392   -2186.7339    22.509851    22.538242    22.288228    2.8188113    1804.0722    14161.169 
  327000     753.3372   -4275.3976            0   -4214.7321   -728.75029    22.509851    22.538242    22.288228    2.5706925    1812.0918    14153.475 
  328000    841.17011    -4276.086            0   -4208.3473    -961.1939    22.509851    22.538242    22.288228    3.1744895    1820.1153    14145.808 
  329000    774.65415   -4275.3478            0   -4212.9656   -387.31976    22.509851    22.538242    22.288228    3.0660932    1828.1383    14138.135 
  330000    764.90673   -4274.0183            0   -4212.4211   -1240.5503    22.509851    22.538242    22.288228    3.6293574    1836.1438    14130.324 
  331000    837.05333   -4277.9806            0   -4210.5735   -1198.7804    22.509851    22.538242    22.288228    2.3937503    1844.1346    14122.399 
  332000      799.858   -4273.3536            0   -4208.9418    59.721194    22.509851    22.538242    22.288228    3.0492768    1852.1093     14114.35 
  333000    794.75263   -4279.0893            0   -4215.0886   -2946.8702    22.509851    22.538242    22.288228    2.3023483    1860.1055    14106.465 
  334000    807.74868   -4273.6598            0   -4208.6125   -163.12998    22.509851    22.538242    22.288228    2.6789146    1868.1023    14098.584 
  335000     758.2896   -4271.0189            0   -4209.9545   -1273.6565    22.509851    22.538242    22.288228    2.8734694    1876.0922     14090.65 
  336000    753.62242   -4274.5451            0   -4213.8566    170.44679    22.509851    22.538242    22.288228    3.0876101    1884.1219    14083.013 
  337000    844.04501   -4273.7237            0   -4205.7536   -468.71104    22.509851    22.538242    22.288228    2.7603936    1892.0922     14074.93 
  338000    772.11857   -4272.8347            0   -4210.6567    -142.3578    22.509851    22.538242    22.288228    2.9455693    1900.0575    14066.812 
  339000    780.12587   -4275.9649            0   -4213.1421   -1078.6808    22.509851    22.538242    22.288228     2.596923    1908.0231    14058.698 
  340000    854.26088   -4274.1674            0   -4205.3746    357.57627    22.509851    22.538242    22.288228    2.3670771    1916.0639    14051.136 
  341000    804.83302   -4274.5885            0   -4209.7761    170.35189    22.509851    22.538242    22.288228    2.7610646    1924.0726    14043.335 
  342000    783.73038    -4275.976            0   -4212.8629   -870.99487    22.509851    22.538242    22.288228    3.1179387    1932.0442    14035.264 
  343000    806.77112   -4279.1203            0   -4214.1517   -1919.7365    22.509851    22.538242    22.288228    2.5251299    1940.0129    14027.171 
  344000    815.98615   -4274.1088            0   -4208.3982   -188.07272    22.509851    22.538242    22.288228    2.5561543    1947.9835    14019.095 
  345000    774.06083   -4276.3471            0   -4214.0127   -273.59885    22.509851    22.538242    22.288228    3.0925484    1955.9652    14011.097 
  346000    801.29711   -4278.4027            0    -4213.875   -1333.1707    22.509851    22.538242    22.288228    2.4694157    1963.9358    14003.022 
  347000    800.54438   -4274.9784            0   -4210.5113   -923.86292    22.509851    22.538242    22.288228    2.3015077    1971.9075    13994.955 
  348000    836.49146   -4278.5824            0   -4211.2206   -1601.2741    22.509851    22.538242    22.288228    2.7995142    1979.8735    13986.849 
  349000    806.57868   -4276.5954            0   -4211.6424   -1118.7738    22.509851    22.538242    22.288228    3.0322373    1987.8448     13978.78 
  350000    801.29117   -4280.6706            0   -4216.1434   -2534.9162    22.509851    22.538242    22.288228    3.0683799    1995.8136    13970.695 
  351000    794.66743   -4275.4361            0   -4211.4422   -36.811314    22.509851    22.538242    22.288228    2.9835372    2003.7809    13962.601 
  352000    798.24687   -4274.4926            0   -4210.2105   -1770.9736    22.509851    22.538242    22.288228    3.9185307    2011.7534    13954.543 
  353000    768.75728   -4278.4301            0   -4216.5228   -751.72017    22.509851    22.538242    22.288228    2.5143449    2019.7289    13946.508 
  354000    737.21708   -4279.4107            0   -4220.0433    -1404.135    22.509851    22.538242    22.288228    3.2387367    2027.6911     13938.38 
  355000    810.73812   -4276.6787            0   -4211.3907   -1073.1088    22.509851    22.538242    22.288228    2.4522126    2035.6614     13930.31 
  356000    815.60623   -4275.2456            0   -4209.5656   -472.85463    22.509851    22.538242    22.288228     3.281507    2043.6313    13922.238 
  357000    767.45323   -4277.8652            0   -4216.0629   -908.09587    22.509851    22.538242    22.288228    2.6958301    2051.6108    13914.232 
  358000    879.42696   -4279.8008            0   -4208.9813   -1821.8847    22.509851    22.538242    22.288228    2.3076118    2059.5904    13906.227 
  359000     811.2735   -4276.6286            0   -4211.2975    -70.38509    22.509851    22.538242    22.288228    2.7167209    2067.5656    13898.192 
  360000    779.47883   -4277.2951            0   -4214.5244   -738.22627    22.509851    22.538242    22.288228    2.2742275    2075.5382     13890.14 
  361000    841.05738   -4274.2282            0   -4206.4986    424.98016    22.509851    22.538242    22.288228    3.5407832    2083.5177    13882.135 
  362000    809.96148   -4277.5343            0   -4212.3088   -1389.2334    22.509851    22.538242    22.288228    3.4656181    2091.4872    13874.064 
  363000    818.63012   -4278.4503            0   -4212.5268   -264.77969    22.509851    22.538242    22.288228    3.3544152    2099.4579    13866.002 
  364000    867.14655   -4274.6427            0   -4204.8122    821.18572    22.509851    22.538242    22.288228    2.5586503    2107.4291    13857.943 
  365000    792.20945    -4273.318            0   -4209.5221   -1123.7557    22.509851    22.538242    22.288228    3.0433967    2115.4003    13849.885 
  366000    824.04254   -4279.4869            0   -4213.1275   -2623.7672    22.509851    22.538242    22.288228    2.8335607    2123.3707    13841.822 
  367000    782.22718   -4273.2433            0   -4210.2513    130.58416    22.509851    22.538242    22.288228    3.0174425    2131.3385    13833.744 
  368000    828.44175   -4275.0408            0   -4208.3272   -939.32735    22.509851    22.538242    22.288228    3.2687381    2139.3135    13825.712 
  369000    786.55221   -4277.1301            0   -4213.7898   -762.03908    22.509851    22.538242    22.288228    2.7828067    2147.2779    13817.614 
  370000    843.45345   -4277.6345            0    -4209.712   -642.79661    22.509851    22.538242    22.288228    2.8578117    2155.2453    13809.534 
  371000    827.41643   -4272.3667            0   -4205.7356   -347.25063    22.509851    22.538242    22.288228    2.8514936    2163.2104    13801.442 
  372000     761.5945   -4275.2958            0   -4213.9653   -2164.8511    22.509851    22.538242    22.288228    2.7725203    2171.1818     13793.39 
  373000    830.83371   -4277.8252            0   -4210.9189   -1113.9236    22.509851    22.538242    22.288228    2.9560981    2179.1552    13785.352 
  374000    832.16201   -4275.8017            0   -4208.7885   -137.13506    22.509851    22.538242    22.288228    2.4721006    2187.1167    13777.239 
  375000      791.954   -4278.8554            0   -4215.0801     -852.192    22.509851    22.538242    22.288228     2.274187    2195.0969    13769.244 
  376000    815.45574   -4274.6993            0   -4209.0314      486.354    22.509851    22.538242    22.288228     2.573054    2203.0712    13761.213 
  377000    788.74293    -4278.042            0   -4214.5253   -1780.8369    22.509851    22.538242    22.288228    2.3678736    2211.0335    13753.107 
  378000    806.90649   -4279.2457            0   -4214.2663   -1015.3373    22.509851    22.538242    22.288228    3.0394072    2219.0077    13745.077 
  379000    820.25383   -4276.1651            0   -4210.1109   -875.92003    22.509851    22.538242    22.288228    3.0211609    2226.9717    13736.983 
  380000    773.44324   -4276.9255            0   -4214.6409   -1156.6726    22.509851    22.538242    22.288228    3.0576234    2234.9455    13728.951 
  381000    757.40779   -4277.9995            0   -4217.0061   -1834.0995    22.509851    22.538242    22.288228    2.4856148    2242.9029    13720.819 
  382000    814.36177   -4276.7215            0   -4211.1417   -254.84037    22.509851    22.538242    22.288228     3.067971    2250.9328    13713.129 
  383000    802.20871   -4275.0714            0   -4210.4703   -281.23973    22.509851    22.538242    22.288228    2.7441248    2258.9376    13705.286 
  384000     742.2853   -4276.5552            0   -4216.7797   -2463.1169    22.509851    22.538242    22.288228    2.8144901    2266.9251    13697.336 
  385000    785.62352   -4273.2632            0   -4209.9977   -501.63157    22.509851    22.538242    22.288228    3.3900554    2274.9097    13689.369 
  386000    805.34602   -4276.3089            0   -4211.4552   -739.61528    22.509851    22.538242    22.288228    2.9801169    2282.8922    13681.389 
  387000    787.55659   -4280.2965            0   -4216.8753   -2073.1348    22.509851    22.538242    22.288228    2.5321518    2290.8723    13673.395 
  388000    798.62034   -4277.5544            0   -4213.2423   -278.74214    22.509851    22.538242    22.288228    3.0814977    2298.8526    13665.401 
  389000    801.10327   -4275.0115            0   -4210.4994   -954.76363    22.509851    22.538242    22.288228    3.5737014    2306.8367    13657.431 
  390000    778.04291   -4278.6018            0   -4215.9468   -1049.5913    22.509851    22.538242    22.288228    2.7278133    2314.8559    13649.668 
  391000    806.97918   -4277.1055            0   -4212.1202   -1185.1835    22.509851    22.538242    22.288228    3.4750489    2322.8166    13641.558 
  392000    804.00664   -4275.2718            0   -4210.5259    171.19372    22.509851    22.538242    22.288228    2.4315266    2330.7731    13633.427 
  393000    753.56304   -4276.3567            0    -4215.673   -1504.3888    22.509851    22.538242    22.288228    2.4470196    2338.7396    13625.354 
  394000    819.63839   -4274.5069            0   -4208.5022     900.0839    22.509851    22.538242    22.288228     4.049366    2346.6966    13617.226 
  395000    795.92024   -4275.8964            0   -4211.8017   -386.32346    22.509851    22.538242    22.288228    2.7024474    2354.6556    13609.111 
  396000    791.38835   -4277.6196            0   -4213.8898   -1241.9727    22.509851    22.538242    22.288228    2.4838217    2362.6254     13601.06 
  397000    784.79823   -4275.2431            0    -4212.044    119.09127    22.509851    22.538242    22.288228    2.2293752     2370.582    13592.933 
  398000    797.33533   -4276.0404            0   -4211.8317   -454.34512    22.509851    22.538242    22.288228    2.9645001    2378.5527    13584.888 
  399000    773.35465   -4273.9984            0   -4211.7209   -1566.5231    22.509851    22.538242    22.288228    2.5577813    2386.5137    13576.788 
  400000    759.31016   -4274.0665            0   -4212.9199   -1172.3356    22.509851    22.538242    22.288228    2.9300917    2394.4844    13568.745 
  401000    783.60445    -4277.532            0   -4214.4291   -2008.2786    22.509851    22.538242    22.288228    2.8949644    2402.4475    13560.659 
  402000    809.28942   -4272.9325            0   -4207.7612   -475.93738    22.509851    22.538242    22.288228    3.2654356    2410.4089    13552.564 
  403000    776.38418   -4276.5506            0   -4214.0291   -1461.0518    22.509851    22.538242    22.288228     3.003869    2418.3855    13544.555 
  404000    817.54021   -4278.9919            0   -4213.1562   -990.78793    22.509851    22.538242    22.288228    3.7299647    2426.3411    13536.429 
  405000    856.61636   -4277.7736            0   -4208.7911   -93.876865    22.509851    22.538242    22.288228    2.6787168    2434.3128    13528.394 
  406000    784.20224   -4278.5116            0   -4215.3605   -669.17308    22.509851    22.538242    22.288228    2.6519229    2442.2792     13520.33 
  407000     787.4716   -4275.9191            0   -4212.5047   -799.20443    22.509851    22.538242    22.288228    2.5684105    2450.2464    13512.271 
  408000    845.02548    -4277.685            0   -4209.6359   -2428.4678    22.509851    22.538242    22.288228    2.3573338     2458.205    13504.165 
  409000    808.56294   -4277.5763            0   -4212.4635   -1585.9231    22.509851    22.538242    22.288228    3.2226041     2466.162    13496.052 
  410000    761.77715   -4274.4277            0   -4213.0825   -53.129395    22.509851    22.538242    22.288228    3.4983826    2474.1279    13487.988 
  411000     809.6109    -4274.507            0   -4209.3097    -931.5711    22.509851    22.538242    22.288228     2.635893    2482.0835    13479.868 
  412000    781.76558    -4274.907            0   -4211.9521   -859.07227    22.509851    22.538242    22.288228    2.5777926    2490.0454    13471.784 
  413000      755.384   -4275.6778            0   -4214.8475   -1449.3819    22.509851    22.538242    22.288228    3.0089468    2498.0037    13463.681 
  414000    784.56303   -4273.7788            0   -4210.5987   -378.94565    22.509851    22.538242    22.288228    2.8755549    2505.9602     13455.57 
  415000    814.95291   -4277.9096            0   -4212.2822   -1036.5679    22.509851    22.538242    22.288228    2.7730889    2513.9248    13447.503 
  416000    762.37834   -4274.5139            0   -4213.1203   -522.21088    22.509851    22.538242    22.288228    2.8162913    2521.8874    13439.425 
  417000    815.26648   -4273.8691            0   -4208.2165   -1011.7959    22.509851    22.538242    22.288228    2.7744032    2529.8468    13431.332 
  418000    785.34691   -4277.2565            0   -4214.0132   -734.05559    22.509851    22.538242    22.288228    2.4557263    2537.8081    13423.249 
  419000    812.20704   -4278.3882            0   -4212.9819   -988.52253    22.509851    22.538242    22.288228    2.2288035    2545.7661     13415.15 
  420000    804.44776     -4274.08            0   -4209.2985   -550.64985    22.509851    22.538242    22.288228    2.5990448    2553.7222    13407.042 
  421000    764.03923   -4278.8141            0   -4217.2868   -2291.9406    22.509851    22.538242    22.288228    2.4249882    2561.7007    13399.051 
  422000     828.7548   -4277.7992            0   -4211.0603   -1124.1646    22.509851    22.538242    22.288228    2.8005858    2569.6877    13391.106 
  423000    812.65949   -4276.1599            0   -4210.7172   -677.13034    22.509851    22.538242    22.288228    3.2140088     2577.657    13383.067 
  424000    761.95172    -4279.619            0   -4218.2598   -1628.3608    22.509851    22.538242    22.288228     2.418596    2585.6094    13374.943 
  425000    789.98522   -4276.6985            0   -4213.0817   -2520.0594    22.509851    22.538242    22.288228    2.7343291    2593.5686    13366.854 
  426000    818.75366   -4275.9433            0   -4210.0098   -1311.1884    22.509851    22.538242    22.288228    3.6598669    2601.5329    13358.791 
  427000      755.931   -4277.6304            0    -4216.756   -1813.0861    22.509851    22.538242    22.288228    2.7390356    2609.4964    13350.726 
  428000    787.01314   -4275.8112            0   -4212.4338   -879.97349    22.509851    22.538242    22.288228    3.3339297    2617.4685    13342.705 
  429000    781.48631   -4273.6168            0   -4210.6844    508.47815    22.509851    22.538242    22.288228    2.4639462    2625.4285    13334.623 
  430000    798.24917   -4280.7365            0   -4216.4543   -2145.7518    22.509851    22.538242    22.288228    2.9756229    2633.3894    13326.547 
  431000    799.56993   -4278.3096            0    -4213.921   -905.05472    22.509851    22.538242    22.288228    2.4607027    2641.3456    13318.447 
  432000    804.19838   -4275.4271            0   -4210.6658   -2317.7395    22.509851    22.538242    22.288228    3.2215845    2649.3107    13310.392 
  433000    774.30815   -4276.2061            0   -4213.8518   -303.56363    22.509851    22.538242    22.288228    2.4319656    2657.2863    13302.391 
  434000    784.82883   -4279.3227            0   -4216.1212   -1528.7417    22.509851    22.538242    22.288228    3.0000466    2665.2636    13294.399 
  435000    827.57552   -4275.7836            0   -4209.1397   -2033.2845    22.509851    22.538242    22.288228    2.4479124    2673.2467    13286.435 
  436000    750.10008   -4275.0895            0   -4214.6847   -839.53388    22.509851    22.538242    22.288228    2.8330997    2681.2875    13278.757 
  437000    827.91317   -4276.6772            0   -4210.0061   -1953.2474    22.509851    22.538242    22.288228    2.6781064    2689.2799    13270.838 
  438000    818.45594   -4276.0841            0   -4210.1746    -1291.206    22.509851    22.538242    22.288228    2.5590613    2697.2563     13262.84 
  439000    806.70649   -4279.2995            0   -4214.3361   -941.07174    22.509851    22.538242    22.288228    2.2850023    2705.2376    13254.866 
  440000    828.57475   -4273.4512            0   -4206.7268    -677.5888    22.509851    22.538242    22.288228    3.0565925    2713.2524    13247.056 
  441000    811.81842   -4273.7285            0   -4208.3536   -242.65962    22.509851    22.538242    22.288228    2.9255374    2721.2459     13239.14 
  442000    766.91539   -4275.8725            0   -4214.1136   -1056.9805    22.509851    22.538242    22.288228    2.7002478    2729.2289    13231.174 
  443000    826.72516   -4276.2152            0   -4209.6398   -997.14926    22.509851    22.538242    22.288228    2.5753133    2737.2078    13223.188 
  444000    825.34306   -4275.6086            0   -4209.1445    155.57191    22.509851    22.538242    22.288228     3.899699     2745.202    13215.275 
  445000    769.71425   -4274.1582            0   -4212.1738   -1686.6547    22.509851    22.538242    22.288228    2.9698766     2753.191    13207.337 
  446000    824.97291    -4277.535            0   -4211.1007   -1421.0245    22.509851    22.538242    22.288228    2.8625279    2761.1777    13199.387 
  447000    834.48415   -4273.7598            0   -4206.5596   -616.87148    22.509851    22.538242    22.288228    3.4321462    2769.1488    13191.363 
  448000    747.16938   -4273.9654            0   -4213.7965   -1333.4911    22.509851    22.538242    22.288228    2.8956416    2777.1246    13183.362 
  449000     819.0293    -4277.126            0   -4211.1704   -701.91714    22.509851    22.538242    22.288228    3.2391907    2785.0781    13175.255 
  450000    843.01171   -4271.3367            0   -4203.4498    2075.3828    22.509851    22.538242    22.288228    2.9907314    2793.0315    13167.149 
  451000    779.55195   -4275.2434            0   -4212.4668     98.41395    22.509851    22.538242    22.288228    3.4995857      2800.99    13159.067 
  452000    798.48993   -4275.9971            0   -4211.6955   -601.96841    22.509851    22.538242    22.288228     3.106777    2808.9445    13150.967 
  453000    841.36689   -4275.8595            0    -4208.105     166.7226    22.509851    22.538242    22.288228    2.3555324    2816.9019    13142.882 
  454000    745.50691   -4274.8103            0   -4214.7753   -793.79533    22.509851    22.538242    22.288228    3.2368298    2824.8678    13134.837 
  455000    793.66575   -4275.7472            0    -4211.834   -1036.2954    22.509851    22.538242    22.288228    2.8063329    2832.8276    13126.764 
  456000    807.30441   -4275.1556            0   -4210.1441   -1289.0227    22.509851    22.538242    22.288228    2.6097402    2840.7942    13118.724 
  457000     781.4027   -4275.3963            0   -4212.4707    -811.7959    22.509851    22.538242    22.288228     2.730711    2848.7504    13110.635 
  458000    766.21224   -4279.6201            0   -4217.9177   -666.40099    22.509851    22.538242    22.288228      2.78335    2856.7131    13102.578 
  459000    799.79806   -4275.7524            0   -4211.3454    -1775.675    22.509851    22.538242    22.288228    2.4176662    2864.6668     13094.48 
  460000    802.13054   -4275.0826            0   -4210.4877   -1111.3289    22.509851    22.538242    22.288228    2.5762016    2872.6284    13086.418 
  461000    765.21291    -4278.633            0   -4217.0111   -1491.2076    22.509851    22.538242    22.288228    2.2175022    2880.5836    13078.328 
  462000    808.26028   -4274.7391            0   -4209.6507   -101.27103    22.509851    22.538242    22.288228    2.6268794     2888.544    13070.263 
  463000    846.74082   -4279.5899            0   -4211.4026   -190.15351    22.509851    22.538242    22.288228    2.8280054    2896.4998    13062.177 
  464000     785.3642   -4278.7759            0   -4215.5313   -1816.1133    22.509851    22.538242    22.288228    2.8881721    2904.4619     13054.12 
  465000    825.53653   -4273.9659            0   -4207.4862    368.28349    22.509851    22.538242    22.288228    2.8193952    2912.4269    13046.076 
  466000    827.11588   -4279.6791            0   -4213.0723   -790.82077    22.509851    22.538242    22.288228    2.4378656    2920.3923    13038.036 
  467000    795.70969   -4277.7196            0   -4213.6419   -1069.7334    22.509851    22.538242    22.288228    3.1678802    2928.3514    13029.967 
  468000    812.22478    -4277.282            0   -4211.8743   -1159.8572    22.509851    22.538242    22.288228    2.3636903    2936.3132    13021.911 
  469000    799.91023    -4276.282            0   -4211.8659   -1324.2673    22.509851    22.538242    22.288228    3.2398242    2944.2705    13013.835 
  470000    778.18941   -4274.4322            0   -4211.7653   -987.14934    22.509851    22.538242    22.288228    2.5372025    2952.2336    13005.786 
  471000    791.99251   -4275.1786            0   -4211.4002   -613.27863    22.509851    22.538242    22.288228     2.926247    2960.1913    12997.713 
  472000    779.73134   -4275.7428            0   -4212.9517   -1425.0172    22.509851    22.538242    22.288228    2.9945197    2968.1519    12989.654 
  473000    803.09314   -4279.6066            0   -4214.9343   -1719.5869    22.509851    22.538242    22.288228    2.4056842    2976.1214    12981.634 
  474000    826.76743   -4274.5759            0   -4207.9971   -817.93308    22.509851    22.538242    22.288228    2.7248457    2984.0928    12973.623 
  475000    824.95462   -4280.0451            0   -4213.6122   -1864.9587    22.509851    22.538242    22.288228    2.8952358    2992.0588    12965.588 
  476000    786.61221    -4276.986            0   -4213.6409   -883.14068    22.509851    22.538242    22.288228    2.5387447     3000.026    12957.559 
  477000    799.58423   -4273.3707            0   -4208.9809   -669.66363    22.509851    22.538242    22.288228    4.7486506    3007.9825    12949.484 
  478000    778.79067   -4277.6367            0   -4214.9214    -2343.028    22.509851    22.538242    22.288228    2.7470982    3015.9501    12941.458 
  479000    772.40412   -4274.9023            0   -4212.7013   -1309.1557    22.509851    22.538242    22.288228    3.2586965    3023.8991    12933.352 
  480000     796.8868   -4274.3954            0   -4210.2228    412.48584    22.509851    22.538242    22.288228    2.7421494    3031.8633    12925.312 
  481000    797.58595   -4277.1476            0   -4212.9187   -1321.9596    22.509851    22.538242    22.288228    3.1016437     3039.828    12917.275 
  482000    798.60462    -4272.793            0   -4208.4821   -469.97446    22.509851    22.538242    22.288228    2.6586979    3047.7924    12909.236 
  483000    806.10235   -4273.3943            0   -4208.4796   -222.73376    22.509851    22.538242    22.288228    5.4949798    3055.7466    12901.155 
  484000    804.19786   -4278.4514            0   -4213.6901   -1257.5038    22.509851    22.538242    22.288228    2.3294058     3063.708    12893.104 
  485000    801.95454   -4272.9823            0   -4208.4016   -1.9480659    22.509851    22.538242    22.288228    2.4493913    3071.6638    12885.031 
  486000    838.19945   -4276.8012            0   -4209.3018   -968.84604    22.509851    22.538242    22.288228    2.5052286    3079.6313    12877.008 
  487000    795.50869   -4276.0923            0   -4212.0307    -94.22806    22.509851    22.538242    22.288228    3.0459933    3087.6229    12869.084 
  488000     781.7002   -4274.6592            0   -4211.7096   -488.50649    22.509851    22.538242    22.288228    2.7321194     3095.585    12861.039 
  489000    846.72643   -4275.0943            0   -4206.9082   -793.90311    22.509851    22.538242    22.288228    2.7559875    3103.5567    12853.033 
  490000    785.60759   -4277.5621            0   -4214.2978   -914.70047    22.509851    22.538242    22.288228    3.4315546    3111.5682    12845.192 
  491000    772.86179   -4273.8438            0    -4211.606   -1073.2219    22.509851    22.538242    22.288228    2.8295771    3119.6049    12837.453 
  492000    852.46311   -4272.7105            0   -4204.0624    601.55969    22.509851    22.538242    22.288228    3.2534709    3127.7626     12830.21 
  493000    826.25327   -4276.0025            0   -4209.4651   -86.292575    22.509851    22.538242    22.288228    2.4687381    3135.8794    12822.794 
  494000    772.69912   -4275.8564            0   -4213.6317   -773.28783    22.509851    22.538242    22.288228    2.6252278    3143.8374    12814.728 
  495000    794.12979   -4274.1132            0   -4210.1627   -317.91821    22.509851    22.538242    22.288228    2.8642553    3151.8026    12806.692 
  496000    823.60071   -4275.3442            0   -4209.0204   -505.66739    22.509851    22.538242    22.288228    2.7738776    3159.7688    12798.659 
  497000    802.75043   -4278.9274            0   -4214.2826   -1067.2083    22.509851    22.538242    22.288228    2.5188792    3167.7898    12790.849 
  498000    805.42383   -4274.1705            0   -4209.3104   -484.82466    22.509851    22.538242    22.288228     2.906251    3175.8071    12783.023 
  499000    805.16207   -4277.7134            0   -4212.8744   -1925.2453    22.509851    22.538242    22.288228    2.7188032    3183.8338    12775.233 
  500000    768.95964   -4276.2153            0   -4214.2917   -1526.7209    22.509851    22.538242    22.288228    2.7885805    3191.8347    12767.339 
  501000    819.89099   -4275.7134            0   -4209.6883   -830.27252    22.509851    22.538242    22.288228    2.5594059    3199.8177    12759.373 
  502000    802.59938   -4276.2226            0     -4211.59   -1740.4944    22.509851    22.538242    22.288228     2.838642    3207.8053    12751.425 
  503000    796.43223   -4276.3745            0   -4212.2385   -1155.8058    22.509851    22.538242    22.288228    3.6753117    3215.7806    12743.428 
  504000    796.10854   -4270.4846            0   -4206.3747    346.47169    22.509851    22.538242    22.288228     2.732362    3223.7819    12735.534 
  505000    769.48031    -4274.261            0   -4212.2955   -435.61471    22.509851    22.538242    22.288228       3.3023    3231.8148    12727.764 
  506000    768.23715   -4275.5609            0   -4213.6955   -1236.2216    22.509851    22.538242    22.288228    2.9290867    3239.7718    12719.695 
  507000    815.69679   -4272.0272            0   -4206.3399    796.18671    22.509851    22.538242    22.288228    3.2390033    3247.7372    12711.659 
  508000    792.84883   -4274.8799            0   -4211.0325   -1509.8019    22.509851    22.538242    22.288228    2.3756578    3255.6919    12703.582 
  509000    766.31522   -4274.2037            0   -4212.4931   -1449.0407    22.509851    22.538242    22.288228    3.3025997    3263.6495    12695.517 
  510000    852.57841   -4274.8837            0   -4206.2264   -24.398658    22.509851    22.538242    22.288228    3.5657316    3271.6495    12687.617 
  511000    800.16671   -4276.3177            0    -4211.881   -1156.8824    22.509851    22.538242    22.288228    2.5719376    3279.6167    12679.589 
  512000    806.55879   -4277.4337            0   -4212.4822   -2413.0441    22.509851    22.538242    22.288228    2.6071994    3287.5777    12671.538 
  513000    862.03649   -4275.8931            0   -4206.4741   -648.94044    22.509851    22.538242    22.288228    2.2460672    3295.5372    12663.481 
  514000    842.92451   -4279.2679            0    -4211.388   -1339.9675    22.509851    22.538242    22.288228    2.8839918    3303.5059     12655.46 
  515000    790.71004   -4276.8132            0    -4213.138   -1134.8022    22.509851    22.538242    22.288228    2.5867156     3311.478    12647.452 
  516000    811.88082   -4273.0471            0    -4207.667   -381.01045    22.509851    22.538242    22.288228    3.5400036    3319.4387    12639.401 
  517000    780.56007   -4276.6668            0    -4213.809   -250.46848    22.509851    22.538242    22.288228    3.1747573    3327.4206    12631.431 
  518000    780.98328   -4275.8296            0   -4212.9377   -61.753822    22.509851    22.538242    22.288228    3.1961479    3335.3752    12623.358 
  519000    815.32571   -4274.6285            0   -4208.9711     462.1936    22.509851    22.538242    22.288228    2.5017536    3343.3369    12615.312 
  520000     761.2929    -4279.537            0   -4218.2308   -2038.6945    22.509851    22.538242    22.288228    2.4901453    3351.2943     12607.25 
  521000    755.68991   -4273.0878            0   -4212.2328    -1389.881    22.509851    22.538242    22.288228    3.5446037    3359.2606    12599.222 
  522000    820.70573   -4275.7155            0   -4209.6248   -756.98003    22.509851    22.538242    22.288228    3.4392137    3367.2227    12591.179 
  523000    771.74112   -4279.2501            0   -4217.1025   -1479.2771    22.509851    22.538242    22.288228    3.5467253    3375.1805     12583.12 
  524000    791.91218    -4276.941            0    -4213.169   -1165.0628    22.509851    22.538242    22.288228    2.9121524    3383.1471    12575.094 
  525000     776.2373   -4273.0801            0   -4210.5704   -588.06529    22.509851    22.538242    22.288228    3.5734363    3391.1055    12567.038 
  526000    807.15908   -4272.8316            0   -4207.8318   -384.09729    22.509851    22.538242    22.288228    2.6123584    3399.0723    12559.014 
  527000    776.93356    -4276.105            0   -4213.5393   -898.68867    22.509851    22.538242    22.288228    2.5131481    3407.0274    12550.946 
  528000    782.16626   -4275.7442            0   -4212.7571   -562.10059    22.509851    22.538242    22.288228    2.8128793    3414.9854     12542.89 
  529000    861.72262   -4277.0492            0   -4207.6554   -201.35366    22.509851    22.538242    22.288228    3.1311228    3422.9454    12534.842 
  530000    801.38595   -4277.0313            0   -4212.4964   -585.07363    22.509851    22.538242    22.288228    3.2422316    3430.9062    12526.797 
  531000    798.84605    -4277.082            0   -4212.7517    -1216.307    22.509851    22.538242    22.288228    3.1806266    3438.8842    12518.815 
  532000    827.97342   -4273.6811            0   -4207.0051   -278.48538    22.509851    22.538242    22.288228    3.1880047    3446.8435    12510.765 
  533000    797.88957   -4277.2702            0   -4213.0168   -711.78333    22.509851    22.538242    22.288228    2.3447977    3454.8019    12502.713 
  534000    813.01627   -4277.6131            0   -4212.1416   -121.41265    22.509851    22.538242    22.288228    3.0207951     3462.763     12494.67 
  535000    860.09182   -4273.7944            0    -4204.532    705.39817    22.509851    22.538242    22.288228    2.8471057    3470.7174    12486.604 
  536000    803.33873   -4275.9947            0   -4211.3026   -287.93617    22.509851    22.538242    22.288228    3.2119415    3478.6755    12478.552 
  537000    796.88061   -4277.0545            0   -4212.8825   -1693.7131    22.509851    22.538242    22.288228    2.7324402    3486.6327    12470.496 
  538000    829.69206   -4274.9006            0   -4208.0863   -724.80441    22.509851    22.538242    22.288228    2.1005519    3494.5916    12462.448 
  539000    786.99541   -4274.7053            0   -4211.3293   -1034.1858    22.509851    22.538242    22.288228    3.7828314    3502.5635    12454.446 
  540000    812.91116   -4278.8035            0   -4213.3405   -1256.3574    22.509851    22.538242    22.288228    3.0340938    3510.5156    12446.373 
  541000    812.23928   -4273.2989            0     -4207.89   -258.19189    22.509851    22.538242    22.288228    3.4253883    3518.4733    12438.322 
  542000    830.83767   -4273.2902            0   -4206.3836   -738.35509    22.509851    22.538242    22.288228    3.7571396    3526.4483    12430.331 
  543000    784.51937   -4277.0521            0   -4213.8755   -276.09494    22.509851    22.538242    22.288228     2.683849    3534.4719    12422.512 
  544000    826.27989   -4276.2907            0   -4209.7511   -549.47446    22.509851    22.538242    22.288228    3.6816675    3542.4981    12414.701 
  545000    794.18021   -4272.6293            0   -4208.6747    368.36868    22.509851    22.538242    22.288228    3.1015026    3550.5111    12406.842 
  546000    809.54964   -4278.1414            0   -4212.9491   -917.74476    22.509851    22.538242    22.288228    2.2961999     3558.625    12399.335 
  547000    820.15464   -4275.6858            0   -4209.6395   -325.64484    22.509851    22.538242    22.288228    3.0481027    3566.6604    12391.552 
  548000    817.64387   -4278.2925            0   -4212.4484   -2101.9524    22.509851    22.538242    22.288228    2.4476348    3574.6662    12383.665 
  549000    781.37406   -4277.4068            0   -4214.4835   -1613.4575    22.509851    22.538242    22.288228    2.7611618    3582.6565    12375.724 
  550000    820.47909   -4275.7724            0      -4209.7   -1111.3528    22.509851    22.538242    22.288228    2.5899211    3590.6688    12367.859 
  551000    793.98487   -4276.8748            0   -4212.9359   -2192.0449    22.509851    22.538242    22.288228    2.4503764    3598.6895    12360.022 
  552000    764.76192   -4278.2665            0   -4216.6809   -1629.9542    22.509851    22.538242    22.288228    2.8635693    3606.6571    12352.003 
  553000    799.50533   -4274.3929            0   -4210.0094   -1113.8257    22.509851    22.538242    22.288228    3.0890568    3614.6265    12343.989 
  554000    783.44753   -4274.2584            0   -4211.1681   -460.63216    22.509851    22.538242    22.288228    4.4173468    3622.6026    12335.999 
  555000    781.80318   -4279.0872            0   -4216.1293     -3361.88    22.509851    22.538242    22.288228    3.1568934    3630.5765    12328.001 
  556000    832.83313   -4279.5887            0   -4212.5215   -1316.5129    22.509851    22.538242    22.288228    3.0941457    3638.5432     12319.98 
  557000    811.23461   -4274.4802            0   -4209.1522   -555.23746    22.509851    22.538242    22.288228    2.4206954    3646.5116    12311.964 
  558000    754.44928   -4274.9843            0   -4214.2292   -2095.1537    22.509851    22.538242    22.288228    2.3485271    3654.4781    12303.942 
  559000    802.71492   -4277.3962            0   -4212.7543   -1427.5899    22.509851    22.538242    22.288228    2.6531526    3662.4591    12295.968 
  560000    831.31447   -4276.3338            0   -4209.3888   -1340.9589    22.509851    22.538242    22.288228    2.6196735    3670.4299    12287.961 
  561000    803.16297   -4277.8898            0   -4213.2118   -1664.9936    22.509851    22.538242    22.288228    3.3226222    3678.4092    12279.982 
  562000     744.3123    -4275.573            0   -4215.6342   -1461.9192    22.509851    22.538242    22.288228    4.5108145    3686.3745    12271.957 
  563000    817.96834   -4275.0063            0   -4209.1361   -1371.8303    22.509851    22.538242    22.288228    2.2262192    3694.3443    12263.946 
  564000    824.12416    -4278.088            0   -4211.7221   -1782.2891    22.509851    22.538242    22.288228    2.3341364    3702.3088    12255.919 
  565000    784.20413    -4278.508            0   -4215.3568   -2566.1834    22.509851    22.538242    22.288228    3.0785189    3710.2787    12247.909 
  566000    801.47618   -4275.6625            0   -4211.1204   -1976.7978    22.509851    22.538242    22.288228    2.7647469     3718.247    12239.895 
  567000    805.85561   -4275.6766            0   -4210.7818   -2126.4202    22.509851    22.538242    22.288228     2.396116    3726.2105    12231.864 
  568000    788.94555   -4279.7514            0   -4216.2183   -2249.6067    22.509851    22.538242    22.288228    2.5713738    3734.1732    12223.832 
  569000    843.39822   -4277.4615            0   -4209.5434   -1569.3948    22.509851    22.538242    22.288228    3.1003074    3742.1259    12215.767 
  570000    801.69992   -4276.5138            0   -4211.9537   -1169.7264    22.509851    22.538242    22.288228    3.4281288    3750.0827    12207.716 
  571000    741.31863   -4274.7984            0   -4215.1007   -815.71384    22.509851    22.538242    22.288228    3.5942979    3758.0509    12199.702 
  572000    793.49485    -4276.798            0   -4212.8986   -1362.3569    22.509851    22.538242    22.288228    2.7759325    3766.0174    12191.684 
  573000    823.49743   -4274.9559            0   -4208.6404     32.09525    22.509851    22.538242    22.288228    3.3061587    3773.9766    12183.641 
  574000    777.50733    -4278.512            0   -4215.9001   -1443.4372    22.509851    22.538242    22.288228    2.6125868     3781.939     12175.61 
  575000    801.79341   -4277.8212            0   -4213.2535   -2138.0619    22.509851    22.538242    22.288228    2.4466415    3789.8976    12167.566 
  576000    814.72466    -4276.181            0    -4210.572   -1638.8231    22.509851    22.538242    22.288228    2.3989158    3797.8608    12159.538 
  577000    819.87313   -4277.5215            0   -4211.4978   -1235.0748    22.509851    22.538242    22.288228    2.4603769    3805.8392    12151.558 
  578000     806.6865   -4280.2236            0   -4215.2619   -1206.1346    22.509851    22.538242    22.288228     2.393132    3813.8685     12143.74 
  579000    821.33128   -4274.5022            0   -4208.3611   -460.25748    22.509851    22.538242    22.288228    2.8385365    3821.8238    12135.687 
  580000    830.34535   -4278.1108            0   -4211.2439   -237.83982    22.509851    22.538242    22.288228    2.8213498    3829.7949    12127.684 
  581000    821.85908   -4278.8874            0   -4212.7039   -2439.3833    22.509851    22.538242    22.288228    2.7005004    3837.7515    12119.635 
  582000    819.25386    -4277.056            0   -4211.0823   -1468.3401    22.509851    22.538242    22.288228    2.4237789    3845.7262    12111.644 
  583000     850.1496    -4274.084            0   -4205.6222   -307.36291    22.509851    22.538242    22.288228    2.6391437    3853.6878    12103.611 
  584000     830.4515   -4279.9763            0   -4213.1008   -1482.9519    22.509851    22.538242    22.288228     3.160094    3861.6808    12095.678 
  585000      818.192   -4278.1672            0   -4212.2789    386.22249    22.509851    22.538242    22.288228    3.0937483    3869.6363    12087.627 
  586000    858.35542   -4274.3218            0   -4205.1993    1032.4391    22.509851    22.538242    22.288228    2.7896314    3877.6152    12079.649 
  587000    794.22218   -4276.8841            0   -4212.9261   -845.33242    22.509851    22.538242    22.288228    3.0716289    3885.5767    12071.617 
  588000    809.48944   -4276.1244            0    -4210.937   -991.69576    22.509851    22.538242    22.288228    3.2779255    3893.5364     12063.58 
  589000    796.41593    -4272.887            0   -4208.7523   -493.26765    22.509851    22.538242    22.288228    2.9919492     3901.492    12055.531 
  590000    786.07651   -4278.9906            0   -4215.6886   -1275.0591    22.509851    22.538242    22.288228    2.7618625    3909.4592    12047.517 
  591000    809.70329   -4275.3452            0   -4210.1405   -51.724005    22.509851    22.538242    22.288228    2.3877607    3917.4175    12039.477 
  592000    818.75124   -4276.4666            0   -4210.5334    -1338.159    22.509851    22.538242    22.288228    2.4671232    3925.3727    12031.427 
  593000    754.24178    -4274.942            0   -4214.2036   -1520.4676    22.509851    22.538242    22.288228    2.8171797     3933.332     12023.39 
  594000     781.0723   -4278.9402            0   -4216.0412   -1398.9207    22.509851    22.538242    22.288228    2.8026175    3941.3075    12015.403 
  595000    807.60348   -4274.1819            0   -4209.1463     81.71953    22.509851    22.538242    22.288228    2.6004664    3949.2827    12007.415 
  596000    846.96734   -4282.3415            0    -4214.136   -2624.7219    22.509851    22.538242    22.288228    2.5340242    3957.2421    11999.379 
  597000    747.22865   -4275.6375            0   -4215.4639   -521.56862    22.509851    22.538242    22.288228    2.7108278    3965.2813    11991.585 
  598000    815.16996   -4276.1786            0   -4210.5337   -192.36054    22.509851    22.538242    22.288228    2.8135164    3973.3793    11983.967 
  599000    797.50648   -4275.4516            0   -4211.2292   -861.61947    22.509851    22.538242    22.288228    2.8339947    3981.3716     11976.03 
  600000    756.51979   -4277.0291            0   -4216.1073   -1570.9748    22.509851    22.538242    22.288228      3.20533    3989.3571    11968.071 
  601000    797.26144    -4274.276            0   -4210.0732    355.63026    22.509851    22.538242    22.288228    3.4023872    3997.3502    11960.136 
  602000    829.64716   -4279.0976            0   -4212.2869   -2178.6686    22.509851    22.538242    22.288228     2.991611    4005.3556    11952.236 
  603000    748.67486   -4279.5726            0   -4219.2825   -2153.5948    22.509851    22.538242    22.288228    3.1337279    4013.3667    11944.354 
  604000    776.69134   -4275.2972            0    -4212.751     -894.639    22.509851    22.538242    22.288228    2.8253684    4021.3926    11936.514 
  605000    798.52502   -4274.5033            0   -4210.1989   -608.71936    22.509851    22.538242    22.288228    2.5803771    4029.4307    11928.711 
  606000    771.39584   -4276.1303            0   -4214.0105   -1408.2336    22.509851    22.538242    22.288228    2.7635852     4037.396    11920.691 
  607000    775.02998   -4277.1803            0   -4214.7679   -1493.7297    22.509851    22.538242    22.288228    2.4986603    4045.3524    11912.645 
  608000     822.7247   -4275.8542            0   -4209.6009   -989.61984    22.509851    22.538242    22.288228    3.0372042    4053.3088      11904.6 
  609000    752.59399   -4274.7704            0   -4214.1647   -521.65286    22.509851    22.538242    22.288228    3.3063872    4061.2763    11896.587 
  610000    796.80551   -4277.7809            0   -4213.6149   -1528.9485    22.509851    22.538242    22.288228    3.2149802    4069.2394    11888.562 
  611000    786.96649   -4271.9183            0   -4208.5446   -1252.4932    22.509851    22.538242    22.288228    3.6863548    4077.1972    11880.522 
  612000    804.38952   -4280.0101            0   -4215.2334   -1454.6347    22.509851    22.538242    22.288228     2.875672    4085.1578     11872.49 
  613000    805.30948   -4274.1263            0   -4209.2755    387.30993    22.509851    22.538242    22.288228    3.5487082    4093.1091    11864.431 
  614000    814.88642   -4275.5823            0   -4209.9602   -1323.7926    22.509851    22.538242    22.288228    3.3597978    4101.0655    11856.388 
  615000    746.07174    -4274.608            0   -4214.5275   -343.86322    22.509851    22.538242    22.288228    3.2280655    4109.0174    11848.332 
  616000    832.41936    -4274.315            0    -4207.281    -918.0263    22.509851    22.538242    22.288228     3.652787    4116.9761    11840.296 
  617000    827.08654    -4276.763            0   -4210.1585   -194.57699    22.509851    22.538242    22.288228    3.2853549    4124.9258    11832.234 
  618000    776.37795   -4275.6607            0   -4213.1397   -1586.6842    22.509851    22.538242    22.288228    2.9783568      4132.88    11824.186 
  619000     843.3684   -4278.2663            0   -4210.3506   -2093.5051    22.509851    22.538242    22.288228    2.9327179    4140.8421     11816.16 
  620000    813.63919   -4274.2619            0   -4208.7403    -422.4574    22.509851    22.538242    22.288228    2.9920426    4148.8075    11808.144 
  621000    778.93945   -4277.1358            0   -4214.4085   -1713.1034    22.509851    22.538242    22.288228    3.0908517    4156.7595    11800.091 
  622000    804.14275   -4275.8516            0   -4211.0947   -1675.8425    22.509851    22.538242    22.288228    3.5257735    4164.7079    11792.027 
  623000    834.61189    -4278.085            0   -4210.8745   -1761.0782    22.509851    22.538242    22.288228    2.8413973     4172.669        11784 
  624000    803.96465   -4277.3365            0    -4212.594   -528.37069    22.509851    22.538242    22.288228    2.6730335    4180.6288     11775.97 
  625000    749.70078   -4276.8657            0    -4216.493   -681.71808    22.509851    22.538242    22.288228     3.119247    4188.5831    11767.924 
  626000    802.22826   -4274.6926            0   -4210.0899    300.74304    22.509851    22.538242    22.288228    2.5891909    4196.5487     11759.91 
  627000    812.84825   -4276.3009            0    -4210.843   -433.11688    22.509851    22.538242    22.288228    2.8368457    4204.5074    11751.878 
  628000    776.26362   -4281.0743            0   -4218.5625   -2164.0945    22.509851    22.538242    22.288228    2.8086099    4212.4636    11743.838 
  629000    815.47271   -4274.9454            0   -4209.2762   -518.31099    22.509851    22.538242    22.288228    2.6426198     4220.414    11735.783 
  630000    798.50876   -4276.6844            0   -4212.3813   -1871.3064    22.509851    22.538242    22.288228    2.5616793    4228.3787    11727.767 
  631000    779.89409   -4277.4362            0   -4214.6321   -2267.5809    22.509851    22.538242    22.288228    2.3931126    4236.3334    11719.725 
  632000     805.8925   -4272.5815            0   -4207.6837    91.322534    22.509851    22.538242    22.288228    2.9800819    4244.2968    11711.706 
  633000    783.99089   -4275.5631            0    -4212.429   -1416.1475    22.509851    22.538242    22.288228     2.390965    4252.2644      11703.7 
  634000    775.61919   -4275.0967            0   -4212.6368   -743.01388    22.509851    22.538242    22.288228    2.8564673    4260.2172    11695.653 
  635000    795.25582   -4275.1926            0   -4211.1514   -1052.1959    22.509851    22.538242    22.288228    3.1219677    4268.1729    11687.614 
  636000    801.41026   -4276.2383            0   -4211.7015   -1541.8624    22.509851    22.538242    22.288228    2.8195611     4276.138    11679.601 
  637000    751.28873   -4275.0286            0    -4214.528   -1582.4084    22.509851    22.538242    22.288228    3.5856063    4284.1128    11671.614 
  638000    812.70953   -4273.7259            0   -4208.2791   -256.66971    22.509851    22.538242    22.288228    2.9699999    4292.0907    11663.637 
  639000    792.28174   -4276.0603            0   -4212.2586   -849.28941    22.509851    22.538242    22.288228    2.6507608    4300.0664    11655.653 
  640000    777.86183   -4276.6333            0   -4213.9928    -514.5177    22.509851    22.538242    22.288228    2.5653381      4308.09    11647.799 
  641000    832.26961   -4276.0889            0    -4209.067    -350.1378    22.509851    22.538242    22.288228    3.2141959    4316.0707    11639.829 
  642000    763.51822   -4275.8339            0   -4214.3484   -678.01421    22.509851    22.538242    22.288228    3.5733991    4324.0345    11631.812 
  643000    767.30696   -4275.4004            0   -4213.6099   -922.13937    22.509851    22.538242    22.288228    2.8781557    4332.0163    11623.845 
  644000    812.19631   -4275.4658            0   -4210.0604   -256.10185    22.509851    22.538242    22.288228    2.9158051    4340.0043    11615.894 
  645000     779.2703   -4275.2585            0   -4212.5046   -1426.8254    22.509851    22.538242    22.288228    3.0590843    4347.9796    11607.909 
  646000    793.27004   -4280.6224            0   -4216.7411   -2388.8832    22.509851    22.538242    22.288228    2.7462207    4355.9332    11599.866 
  647000    809.78134   -4276.7687            0   -4211.5577   -587.35007    22.509851    22.538242    22.288228    2.3821777    4363.8809    11591.808 
  648000    808.62074   -4275.1369            0   -4210.0194    -493.5744    22.509851    22.538242    22.288228    2.5718413    4371.8499    11583.807 
  649000    751.12818    -4278.049            0   -4217.5614    -2312.095    22.509851    22.538242    22.288228    2.6925082    4379.8195    11575.807 
  650000    765.02321   -4274.8218            0   -4213.2151   -170.07241    22.509851    22.538242    22.288228    2.7562293     4387.781    11567.786 
  651000    796.26931   -4273.9377            0   -4209.8149   -1077.9571    22.509851    22.538242    22.288228    4.2892822    4395.7972    11559.909 
  652000    791.39219   -4279.3643            0   -4215.6342   -1875.4698    22.509851    22.538242    22.288228    2.2291646    4403.7718    11551.923 
  653000     789.1963   -4276.1928            0   -4212.6396    -439.3319    22.509851    22.538242    22.288228    3.0989918    4411.7523    11543.952 
  654000    784.02889   -4273.2488            0   -4210.1117     307.8417    22.509851    22.538242    22.288228    3.0269241    4419.7313    11535.977 
  655000     780.3902   -4277.5509            0   -4214.7068   -814.99838    22.509851    22.538242    22.288228    2.9026762    4427.6988    11527.973 
  656000    742.97466   -4275.5032            0   -4215.6722   -1464.2855    22.509851    22.538242    22.288228    2.4226547    4435.6787        11520 
  657000    768.14817   -4271.3564            0   -4209.4982    320.34668    22.509851    22.538242    22.288228    2.7738653    4443.6349    11511.966 
  658000    756.50705   -4275.3291            0   -4214.4083   -1273.1147    22.509851    22.538242    22.288228     3.058216    4451.6823    11504.168 
  659000    823.27804   -4278.0907            0   -4211.7929   -2107.9479    22.509851    22.538242    22.288228    2.4163893    4459.6782    11496.237 
  660000    795.94593   -4273.6394            0   -4209.5426   -549.87111    22.509851    22.538242    22.288228    2.7988773    4467.6638    11488.278 
  661000    790.20668   -4278.2299            0   -4214.5953    -1423.132    22.509851    22.538242    22.288228    3.1346776    4475.6525    11480.328 
  662000    805.84578   -4276.9158            0   -4212.0218   -1015.5914    22.509851    22.538242    22.288228    3.5960075    4483.6342    11472.359 
  663000    783.66852   -4274.7553            0   -4211.6472   -695.37038    22.509851    22.538242    22.288228     2.314698    4491.6091    11464.373 
  664000    778.23687   -4274.7886            0   -4212.1179   -293.94343    22.509851    22.538242    22.288228     2.969504    4499.6181    11456.474 
  665000    809.76407   -4277.1206            0   -4211.9111   -2485.4297    22.509851    22.538242    22.288228    2.6814824    4507.6159    11448.547 
  666000    836.04878   -4276.2708            0   -4208.9446   -1193.4959    22.509851    22.538242    22.288228    2.5136872    4515.6538     11440.72 
  667000    779.97483   -4276.2639            0   -4213.4533   -645.78827    22.509851    22.538242    22.288228    2.3148654    4523.6317    11432.741 
  668000    791.63272   -4277.8445            0   -4214.0951   -956.17056    22.509851    22.538242    22.288228    2.7456158    4531.6146    11424.775 
  669000    818.76693   -4274.6744            0   -4208.7398   -592.55145    22.509851    22.538242    22.288228    3.5124887    4539.5874    11416.783 
  670000    806.15857   -4277.2924            0   -4212.3732   -1454.8407    22.509851    22.538242    22.288228    2.8791654    4547.5727    11408.823 
  671000    776.22904   -4279.3186            0   -4216.8096   -2100.2871    22.509851    22.538242    22.288228    3.4835399    4555.5334    11400.801 
  672000     775.7583   -4273.8617            0   -4211.3906   -1970.6476    22.509851    22.538242    22.288228    2.5412498    4563.4952    11392.782 
  673000    806.82868   -4274.9052            0    -4209.932   -1894.4994    22.509851    22.538242    22.288228    2.3470229    4571.4451    11384.733 
  674000    748.39569    -4276.938            0   -4216.6704   -1507.2756    22.509851    22.538242    22.288228    3.1571513    4579.4397    11376.796 
  675000    785.69564   -4276.5471            0   -4213.2758   -1422.0605    22.509851    22.538242    22.288228    3.4912016    4587.3941    11368.759 
  676000    775.15328   -4272.4318            0   -4210.0094   -675.06001    22.509851    22.538242    22.288228    2.5522171    4595.3419    11360.706 
  677000    800.77688   -4275.4406            0   -4210.9547    -1039.934    22.509851    22.538242    22.288228    2.4521294    4603.3017    11352.684 
  678000    780.14308   -4278.4197            0   -4215.5955   -1142.0689    22.509851    22.538242    22.288228    2.4917313    4611.2563    11344.648 
  679000    821.71265   -4275.1148            0    -4208.943   -250.36545    22.509851    22.538242    22.288228    2.5043687    4619.2118    11336.615 
  680000    786.59244   -4275.1403            0   -4211.7968   -731.83906    22.509851    22.538242    22.288228    2.7826109    4627.1672    11328.582 
  681000    794.54425   -4280.4995            0   -4216.5155   -2971.6734    22.509851    22.538242    22.288228     2.326547    4635.1156    11320.532 
  682000    769.57884   -4277.0159            0   -4215.0424   -1400.7726    22.509851    22.538242    22.288228    2.4443227    4643.0722    11312.502 
  683000    828.13014   -4277.0699            0   -4210.3814   -1344.5626    22.509851    22.538242    22.288228      2.30939    4651.0247    11304.463 
  684000    785.20763   -4277.3024            0   -4214.0704   -1106.7908    22.509851    22.538242    22.288228    2.7363209    4658.9795     11296.43 
  685000    787.04405   -4278.2554            0   -4214.8755   -952.72682    22.509851    22.538242    22.288228     2.745576     4666.927    11288.379 
  686000     835.3316   -4276.8472            0   -4209.5787    99.324222    22.509851    22.538242    22.288228    2.9503255    4674.8896    11280.365 
  687000     763.6042   -4276.8064            0    -4215.314    -887.5841    22.509851    22.538242    22.288228    2.7456709    4682.8568    11272.362 
  688000    818.48644   -4276.5733            0   -4210.6613   -1959.1681    22.509851    22.538242    22.288228    2.6744206    4690.8166    11264.342 
  689000    833.77807   -4276.4504            0    -4209.307   -2533.4382    22.509851    22.538242    22.288228     2.763884    4698.7935    11256.363 
  690000    772.58756   -4277.1148            0    -4214.899   -2326.4928    22.509851    22.538242    22.288228     2.975257    4706.7679    11248.378 
  691000    803.30828   -4271.8709            0   -4207.1813    36.975404    22.509851    22.538242    22.288228     2.885886    4714.7221    11240.344 
  692000    829.19283   -4276.8327            0   -4210.0586   -561.52201    22.509851    22.538242    22.288228     2.669654    4722.6869    11232.336 
  693000    802.64232   -4279.1436            0   -4214.5076   -1117.2772    22.509851    22.538242    22.288228     3.429052    4730.6452    11224.313 
  694000    839.15135   -4274.5617            0   -4206.9857    411.62865    22.509851    22.538242    22.288228     3.024347    4738.6029    11216.289 
  695000    815.45077   -4276.1977            0   -4210.5302   -659.30696    22.509851    22.538242    22.288228    3.7864405    4746.5584     11208.26 
  696000    827.13314   -4279.0873            0    -4212.479   -1572.4754    22.509851    22.538242    22.288228    2.8724132    4754.5074    11200.215 
  697000    838.85695   -4275.0774            0    -4207.525    92.306894    22.509851    22.538242    22.288228    2.8319162    4762.4629    11192.187 
  698000    800.94251   -4273.1844            0   -4208.6852   -1142.7413    22.509851    22.538242    22.288228     3.025532    4770.4162    11184.153 
  699000    781.51618   -4275.8313            0   -4212.8965   -701.79536    22.509851    22.538242    22.288228    2.6969763    4778.3672    11176.114 
  700000    810.82161     -4276.02            0   -4210.7253   -845.92476    22.509851    22.538242    22.288228    3.2687925    4786.3251    11168.092 
  701000    811.74272   -4272.6115            0   -4207.2426   -453.56067    22.509851    22.538242    22.288228    2.9634099    4794.2826    11160.069 
  702000     786.8353   -4277.0382            0   -4213.6751   -2012.2917    22.509851    22.538242    22.288228    3.1951009    4802.2422    11152.051 
  703000    810.51188   -4274.6499            0   -4209.3802   -385.74388    22.509851    22.538242    22.288228    2.8934901    4810.1955    11144.019 
  704000    839.44035   -4273.1502            0   -4205.5509   -644.81646    22.509851    22.538242    22.288228    3.3157346    4818.1584    11136.008 
  705000    789.24356   -4277.3852            0   -4213.8281    -1777.187    22.509851    22.538242    22.288228    2.8959185     4826.106    11127.963 
  706000    799.42233   -4275.4774            0   -4211.1007   -503.52368    22.509851    22.538242    22.288228    2.7334734    4834.0648    11119.945 
  707000    828.74246   -4274.6318            0    -4207.894    425.13568    22.509851    22.538242    22.288228    2.7919481      4842.02    11111.917 
  708000    772.06632   -4276.4833            0   -4214.3095     -899.613    22.509851    22.538242    22.288228    2.9591996    4849.9705     11103.88 
  709000    839.52416   -4277.8431            0    -4210.237    -1051.495    22.509851    22.538242    22.288228    3.4441954    4857.9209    11095.842 
  710000    799.49244   -4275.0654            0    -4210.683   -732.88524    22.509851    22.538242    22.288228    2.8247556    4865.8791    11087.823 
  711000    766.38722   -4277.6094            0   -4215.8929   -1741.4039    22.509851    22.538242    22.288228    2.5365805    4873.8249    11079.776 
  712000    831.00749   -4276.7286            0   -4209.8084   -781.74571    22.509851    22.538242    22.288228    2.6358737    4881.8718    11071.958 
  713000    812.70379   -4277.6443            0    -4212.198   -481.47521    22.509851    22.538242    22.288228    3.0165438    4889.8764    11064.043 
  714000    797.42138   -4279.8372            0   -4215.6216   -2089.3644    22.509851    22.538242    22.288228    2.3916932    4897.8363    11056.028 
  715000     818.4212   -4276.1448            0   -4210.2381    5.9885138    22.509851    22.538242    22.288228    2.8862532     4905.814    11048.053 
  716000    822.68214   -4276.5162            0   -4210.2664   -73.400158    22.509851    22.538242    22.288228    3.4381411    4913.8636    11040.239 
  717000    784.95564   -4279.1186            0   -4215.9069   -1717.3265    22.509851    22.538242    22.288228    2.6965044    4921.9844    11032.584 
  718000    818.47814   -4277.3876            0   -4211.4763    133.70014    22.509851    22.538242    22.288228     2.655067    4929.9585      11024.6 
  719000     814.6479   -4275.9081            0   -4210.3053   -1352.7619    22.509851    22.538242    22.288228    3.0185504    4937.9418    11016.636 
  720000     775.0854   -4278.6823            0   -4216.2654   -1687.5829    22.509851    22.538242    22.288228    2.7244559    4946.0142     11008.87 
  721000    842.12526   -4277.5123            0   -4209.6967   -1230.7317    22.509851    22.538242    22.288228     2.835573    4953.9817    11000.871 
  722000     815.4132   -4276.6335            0    -4210.969   -744.84822    22.509851    22.538242    22.288228    2.7468835    4961.9516    10992.877 
  723000     718.4725   -4277.3582            0   -4219.5003   -2143.7838    22.509851    22.538242    22.288228    4.5164787    4969.9259    10984.892 
  724000    784.58376   -4279.8796            0   -4216.6978   -1508.8877    22.509851    22.538242    22.288228    2.6059505    4977.8921     10976.89 
  725000     808.9089   -4275.2292            0   -4210.0885   -667.44133    22.509851    22.538242    22.288228    2.6875224    4985.8539    10968.879 
  726000    785.29507   -4274.5148            0   -4211.2757   -116.59205    22.509851    22.538242    22.288228    3.3516218     4993.811    10960.857 
  727000    769.48346    -4277.653            0   -4215.6872   -822.39723    22.509851    22.538242    22.288228    2.5914918    5001.7638    10952.826 
  728000     751.4691   -4272.0268            0   -4211.5117   -374.93687    22.509851    22.538242    22.288228    3.0833532    5009.7113    10944.783 
  729000    796.12806   -4275.5569            0   -4211.4455   -1294.9996    22.509851    22.538242    22.288228    2.5634624    5017.6793    10936.786 
  730000    790.94752   -4278.2136            0   -4214.5193    23.583732    22.509851    22.538242    22.288228    2.1431643    5025.6394    10928.771 
  731000    769.65223   -4272.4793            0   -4210.4999    94.031595    22.509851    22.538242    22.288228     3.048598    5033.6044    10920.768 
  732000    808.38277   -4275.2803            0   -4210.1819   -136.75033    22.509851    22.538242    22.288228    2.7133402    5041.5577    10912.739 
  733000      775.653    -4278.107            0   -4215.6444   -1679.2984    22.509851    22.538242    22.288228    3.2258358    5049.5116    10904.712 
  734000     823.8306   -4276.4166            0   -4210.0743   -217.77163    22.509851    22.538242    22.288228    3.1684078    5057.4804    10896.716 
  735000    821.91108   -4279.4228            0   -4213.2351    -2253.494    22.509851    22.538242    22.288228    3.0640379    5065.4352    10888.691 
  736000    781.02626   -4278.5983            0    -4215.703   -2866.7942    22.509851    22.538242    22.288228    2.5353947    5073.3881    10880.662 
  737000    791.43107   -4274.4209            0   -4210.6877   -562.54572    22.509851    22.538242    22.288228    2.9801451    5081.3524    10872.658 
  738000    763.02627   -4274.5055            0   -4213.0597   -1494.7257    22.509851    22.538242    22.288228    2.8367687    5089.3074    10864.634 
  739000    761.12838   -4278.3947            0   -4217.1018   -1847.9412    22.509851    22.538242    22.288228    2.7013865    5097.2583    10856.602 
  740000    790.03539   -4274.8077            0   -4211.1869    308.11312    22.509851    22.538242    22.288228    2.9924184    5105.2125    10848.577 
  741000    799.10452   -4274.2399            0   -4209.8888    300.34014    22.509851    22.538242    22.288228    2.4990636    5113.1688    10840.556 
  742000    805.80067   -4277.2144            0   -4212.3241   -579.99587    22.509851    22.538242    22.288228    2.8557867    5121.1169    10832.518 
  743000     760.2079   -4275.5189            0      -4214.3   -1223.2607    22.509851    22.538242    22.288228    3.5717128    5129.0791    10824.511 
  744000    865.85204   -4277.4953            0    -4207.769   -1861.7229    22.509851    22.538242    22.288228    3.0606787     5137.038    10816.496 
  745000    796.08053   -4276.3894            0   -4212.2818   -1754.7946    22.509851    22.538242    22.288228    2.8792517    5144.9891    10808.466 
  746000    790.22093   -4275.6681            0   -4212.0324   -633.32095    22.509851    22.538242    22.288228    2.8207249    5152.9428    10800.441 
  747000    799.72976   -4274.6682            0   -4210.2667   -25.362509    22.509851    22.538242    22.288228    3.5327245    5160.9055    10792.434 
  748000    838.47571   -4275.7509            0   -4208.2292   -1420.8872    22.509851    22.538242    22.288228    3.2483009    5168.8805    10784.454 
  749000    790.58579   -4278.3637            0   -4214.6985   -1046.3017    22.509851    22.538242    22.288228    2.5586376    5176.8409    10776.444 
  750000    804.14936   -4274.0493            0   -4209.2919   -864.52713    22.509851    22.538242    22.288228    2.5539139     5184.802    10768.435 
  751000    849.21438   -4277.8149            0   -4209.4285   -1137.6152    22.509851    22.538242    22.288228    2.5726234    5192.7602     10760.42 
  752000     773.8808   -4276.1347            0   -4213.8148   -927.22898    22.509851    22.538242    22.288228    2.7238305    5200.7242    10752.418 
  753000    842.38355   -4275.1348            0   -4207.2985   -434.01759    22.509851    22.538242    22.288228    3.4689953    5208.6748    10744.387 
  754000     832.2617   -4275.6186            0   -4208.5973    -23.18055    22.509851    22.538242    22.288228    2.5623232    5216.6328    10736.373 
  755000    813.69873    -4278.725            0   -4213.1986    -1122.066    22.509851    22.538242    22.288228    3.3974295    5224.5956    10728.368 
  756000    828.41097   -4276.8722            0    -4210.161     55.77173    22.509851    22.538242    22.288228    2.9492788    5232.5547    10720.356 
  757000    826.64711   -4274.7846            0   -4208.2155    291.86321    22.509851    22.538242    22.288228    2.6493182     5240.504    10712.324 
  758000    813.85912   -4279.1253            0   -4213.5859   -2020.6983    22.509851    22.538242    22.288228     2.455046     5248.455    10704.296 
  759000    843.71918   -4277.7492            0   -4209.8053   -526.41956    22.509851    22.538242    22.288228    3.6395907    5256.4033    10696.262 
  760000    844.23731   -4272.8209            0   -4204.8353    768.93099    22.509851    22.538242    22.288228    2.4451964    5264.3538    10688.233 
  761000    781.54832   -4276.7825            0   -4213.8452   -50.327543    22.509851    22.538242    22.288228     3.027602    5272.3077    10680.212 
  762000    801.40414   -4276.0038            0   -4211.4675   -514.38892    22.509851    22.538242    22.288228    2.4418157    5280.2646    10672.196 
  763000    848.32579   -4276.1022            0   -4207.7873   -1253.4734    22.509851    22.538242    22.288228    2.6325645    5288.2197    10664.178 
  764000    783.27524   -4278.4433            0   -4215.3668   -922.81414    22.509851    22.538242    22.288228    2.8571743     5296.177    10656.163 
  765000    813.59497   -4275.1054            0   -4209.5873    509.05279    22.509851    22.538242    22.288228    3.2884574    5304.1337    10648.148 
  766000    799.54605   -4277.1693            0   -4212.7826   -1169.6318    22.509851    22.538242    22.288228    3.1043541    5312.1659    10640.284 
  767000    792.08781    -4279.106            0   -4215.3199   -1853.6014    22.509851    22.538242    22.288228    3.2346409     5320.189    10632.402 
  768000    803.94659    -4274.793            0   -4210.0519   -1189.0825    22.509851    22.538242    22.288228    2.5572302    5328.2224    10624.539 
  769000    774.84759   -4277.7436            0   -4215.3458   -966.90892    22.509851    22.538242    22.288228    3.1318184    5336.1895    10616.544 
  770000     810.5301    -4280.903            0   -4215.6318   -2703.2352    22.509851    22.538242    22.288228    2.6579712    5344.1625    10608.561 
  771000    789.69766    -4274.413            0   -4210.8194    -996.6792    22.509851    22.538242    22.288228    2.8534781    5352.1476    10600.602 
  772000    799.81567   -4276.0871            0   -4211.6787   -1018.7891    22.509851    22.538242    22.288228    2.8612956    5360.1125    10592.603 
  773000    788.15081   -4279.7243            0   -4216.2553    -744.7876    22.509851    22.538242    22.288228     2.411303    5368.0998    10584.648 
  774000    824.93041   -4276.1884            0   -4209.7575   -1037.0137    22.509851    22.538242    22.288228    2.9120043    5376.1731    10576.863 
  775000    809.32815   -4277.7682            0   -4212.5938    1.4853687    22.509851    22.538242    22.288228    2.5588921    5384.1629    10568.912 
  776000    746.32248   -4278.9304            0   -4218.8297   -1216.6357    22.509851    22.538242    22.288228    3.7374189    5392.1206    10560.899 
  777000    816.38744   -4276.9382            0   -4211.1953   -326.05888    22.509851    22.538242    22.288228    2.9850194    5400.0753     10552.88 
  778000    813.95347   -4276.5548            0   -4211.0079   -1147.0258    22.509851    22.538242    22.288228    2.5237609    5408.0355    10544.872 
  779000     752.6725   -4277.2314            0   -4216.6194   -2133.6327    22.509851    22.538242    22.288228    2.3688807    5416.0269    10536.924 
  780000    835.38407   -4277.3998            0   -4210.1271   -1484.0165    22.509851    22.538242    22.288228    2.3962081    5424.0256    10528.991 
  781000    789.49955   -4274.5754            0   -4210.9977   -468.29323    22.509851    22.538242    22.288228    2.2093331    5432.0265    10521.062 
  782000    752.66839   -4277.4443            0   -4216.8327   -2132.1771    22.509851    22.538242    22.288228    2.7534079    5439.9917    10513.063 
  783000    823.71971   -4277.3396            0   -4211.0062   -849.01043    22.509851    22.538242    22.288228    2.8938913    5447.9609    10505.072 
  784000    820.60672   -4275.7966            0   -4209.7139   -967.10144    22.509851    22.538242    22.288228    2.3283452    5455.9246    10497.071 
  785000    778.49775   -4278.2381            0   -4215.5464    -2731.084    22.509851    22.538242    22.288228    2.8424048    5463.8989    10489.091 
  786000     809.3426   -4277.4812            0   -4212.3056   -945.27903    22.509851    22.538242    22.288228    2.2736576    5471.8762    10481.116 
  787000    809.40917   -4276.8915            0   -4211.7105      376.607    22.509851    22.538242    22.288228     3.001517      5479.84    10473.115 
  788000    779.64162   -4277.9827            0   -4215.1989   -693.38187    22.509851    22.538242    22.288228    2.4306479    5487.8075    10465.121 
  789000     783.4934   -4275.2457            0   -4212.1517   -1636.8155    22.509851    22.538242    22.288228    2.9513237    5495.7672    10457.113 
  790000    822.89008   -4275.6306            0   -4209.3641   -395.21884    22.509851    22.538242    22.288228    2.7506256    5503.7521    10449.152 
  791000    775.91432   -4276.7257            0    -4214.242   -2033.8356    22.509851    22.538242    22.288228    2.5856432    5511.7196    10441.159 
  792000    797.61538   -4271.3154            0   -4207.0841    562.31826    22.509851    22.538242    22.288228    3.0088682     5519.704    10433.198 
  793000    824.92326   -4278.0645            0   -4211.6342   -605.11031    22.509851    22.538242    22.288228    3.6859203     5527.671    10425.203 
  794000    750.01789   -4274.5182            0     -4214.12   -1707.0091    22.509851    22.538242    22.288228    3.2589267    5535.6835    10417.295 
  795000    823.14914    -4272.824            0   -4206.5366    748.57326    22.509851    22.538242    22.288228    3.3744175    5543.6889    10409.373 
  796000    810.23737   -4275.4968            0   -4210.2491   -1611.5236    22.509851    22.538242    22.288228    2.3760766    5551.6475    10401.363 
  797000    796.28366   -4277.5812            0   -4213.4573   -922.15486    22.509851    22.538242    22.288228    3.4416399    5559.6073    10393.355 
  798000    774.92993   -4273.8184            0    -4211.414   -767.87791    22.509851    22.538242    22.288228    3.7013468    5567.5748    10385.362 
  799000    844.76106   -4276.2293            0   -4208.2015   -710.71821    22.509851    22.538242    22.288228    2.4504886    5575.5451    10377.374 
  800000    771.54039   -4277.0434            0    -4214.912   -1201.1973    22.509851    22.538242    22.288228    3.3879491    5583.5151    10369.385 
  801000    793.57496   -4275.3102            0   -4211.4043    950.47795    22.509851    22.538242    22.288228    2.8515093      5591.48    10361.387 
  802000    828.41668   -4277.3082            0   -4210.5966   -1448.3525    22.509851    22.538242    22.288228    2.9514278    5599.6313    10353.734 
  803000    755.92122   -4278.7571            0   -4217.8835   -1336.6878    22.509851    22.538242    22.288228     2.384965    5607.6188    10345.778 
  804000    814.43013   -4276.2165            0   -4210.6312    -2082.846    22.509851    22.538242    22.288228    2.9567975    5615.5774    10337.768 
  805000    765.95628   -4273.3506            0   -4211.6689   -1170.9532    22.509851    22.538242    22.288228    3.1958833    5623.5343    10329.754 
  806000    789.96901   -4280.8962            0   -4217.2807   -2808.1374    22.509851    22.538242    22.288228     2.508781    5631.4808    10321.723 
  807000    798.55322   -4276.4878            0   -4212.1811   -764.47553    22.509851    22.538242    22.288228     2.561995    5639.4187    10313.675 
  808000    802.73601   -4275.1923            0   -4210.5487    -836.9087    22.509851    22.538242    22.288228    2.9762273    5647.3817    10305.674 
  809000    817.85722   -4277.0176            0   -4211.1563   -1588.4908    22.509851    22.538242    22.288228    2.3229199    5655.3332    10297.652 
  810000    765.41536   -4277.2964            0   -4215.6582    -2297.959    22.509851    22.538242    22.288228    3.1132706     5663.289    10289.638 
  811000    846.54291   -4276.3141            0   -4208.1428   -761.52513    22.509851    22.538242    22.288228     2.587329    5671.2494    10281.632 
  812000    793.55665   -4275.3165            0   -4211.4121   -1244.2532    22.509851    22.538242    22.288228    2.8567918    5679.2146    10273.635 
  813000    797.22935   -4277.3242            0    -4213.124   -1392.3144    22.509851    22.538242    22.288228    2.6220106    5687.1642    10265.611 
  814000    811.61471    -4277.064            0   -4211.7055   -1090.0513    22.509851    22.538242    22.288228    3.2496722    5695.1108    10257.581 
  815000    784.86657   -4272.0298            0   -4208.8252   -1209.4785    22.509851    22.538242    22.288228    2.8218613    5703.0652    10249.565 
  816000    798.35345   -4275.3901            0   -4211.0994    51.404682    22.509851    22.538242    22.288228    2.4080914    5711.1528    10241.788 
  817000    779.47586   -4277.3376            0   -4214.5672   -1515.4024    22.509851    22.538242    22.288228    2.0767341    5719.1055    10233.769 
  818000    852.50728   -4275.5425            0   -4206.8908    306.21963    22.509851    22.538242    22.288228    2.7447373    5727.0525     10225.74 
  819000    806.79785   -4275.4164            0   -4210.4458   -890.50207    22.509851    22.538242    22.288228    2.7080619    5735.0164    10217.741 
  820000    784.28576    -4277.358            0   -4214.2002   -1885.0131    22.509851    22.538242    22.288228    3.0587284    5742.9787     10209.74 
  821000    843.72286   -4276.9291            0   -4208.9848   -1614.1279    22.509851    22.538242    22.288228    2.7504113    5750.9397    10201.736 
  822000    796.51316    -4274.828            0   -4210.6855   -1348.0378    22.509851    22.538242    22.288228    3.0188806    5758.8979    10193.728 
  823000     780.6892   -4277.0446            0   -4214.1764   -638.28254    22.509851    22.538242    22.288228    2.7134944    5766.8597    10185.726 
  824000    800.84925   -4275.2162            0   -4210.7246   -590.95139    22.509851    22.538242    22.288228    2.6819286    5774.8152    10177.713 
  825000    803.16998   -4274.7694            0   -4210.0909   -756.21846    22.509851    22.538242    22.288228    2.5804061    5782.7769    10169.711 
  826000    789.97181   -4278.2398            0   -4214.6242   -1611.7407    22.509851    22.538242    22.288228    2.7451649    5790.7414    10161.714 
  827000    803.49065    -4274.635            0   -4209.9307    -593.0775    22.509851    22.538242    22.288228    2.8980675    5798.7021    10153.711 
  828000    795.69804   -4273.7873            0   -4209.7104   -3.3856858    22.509851    22.538242    22.288228    3.0467136    5806.6694    10145.719 
  829000    781.04049   -4275.6154            0   -4212.7189   -343.91726    22.509851    22.538242    22.288228    3.3694193    5814.6205    10137.699 
  830000    780.92622   -4273.5144            0   -4210.6271   -1266.0376    22.509851    22.538242    22.288228     2.819972    5822.5932    10129.717 
  831000    806.10094   -4273.0103            0   -4208.0958   -410.26024    22.509851    22.538242    22.288228    2.7551302    5830.5544    10121.715 
  832000    755.23428   -4275.9388            0   -4215.1204   -639.31429    22.509851    22.538242    22.288228    2.5719935    5838.5152    10113.712 
  833000    795.29736   -4274.7932            0   -4210.7487    85.031202    22.509851    22.538242    22.288228    2.4546933    5846.4837    10105.723 
  834000    805.72131   -4273.5956            0   -4208.7117   -1170.3955    22.509851    22.538242    22.288228    2.6413386    5854.4522    10097.734 
  835000    760.85745   -4274.5525            0   -4213.2814   -2458.4413    22.509851    22.538242    22.288228    2.1304338    5862.4037    10089.715 
  836000    759.95141   -4274.0216            0   -4212.8235   -875.44539    22.509851    22.538242    22.288228    2.8688624    5870.3665    10081.716 
  837000    811.14254    -4272.926            0   -4207.6055   -1358.7563    22.509851    22.538242    22.288228     3.119059    5878.3206    10073.703 
  838000    768.44472    -4276.144            0   -4214.2619   -914.22763    22.509851    22.538242    22.288228    3.4533457    5886.2847    10065.706 
  839000    786.26341   -4275.2864            0   -4211.9693   -995.98156    22.509851    22.538242    22.288228    3.3102473    5894.2475    10057.708 
  840000     844.6664   -4274.1853            0   -4206.1651   -557.95063    22.509851    22.538242    22.288228    2.3738175    5902.2255    10049.735 
  841000    810.62431   -4273.6615            0   -4208.3826    312.92806    22.509851    22.538242    22.288228    3.5967464     5910.191    10041.741 
  842000    792.26027   -4276.6055            0   -4212.8055   -1482.5398    22.509851    22.538242    22.288228    2.4745727    5918.1483    10033.734 
  843000    802.77541    -4275.348            0   -4210.7013    -199.2985    22.509851    22.538242    22.288228    2.6171073       5926.1    10025.717 
  844000    829.49841   -4274.2127            0    -4207.414   -181.56737    22.509851    22.538242    22.288228    2.6536082    5934.0557    10017.707 
  845000    795.59256   -4277.9357            0   -4213.8673   -317.03999    22.509851    22.538242    22.288228    3.7022573    5942.0145    10009.702 
  846000    807.36302   -4274.6946            0   -4209.6784    -1258.126    22.509851    22.538242    22.288228    3.5245418    5949.9742    10001.699 
  847000     832.3513    -4274.314            0   -4207.2855   -29.947537    22.509851    22.538242    22.288228    3.3408204    5957.9527    9993.7279 
  848000    777.83959   -4277.5722            0   -4214.9336   -1492.6984    22.509851    22.538242    22.288228    2.9330164    5965.8989    9985.7024 
  849000     817.2065   -4275.2596            0   -4209.4507   -896.29073    22.509851    22.538242    22.288228    2.9307516    5973.8674    9977.7145 
  850000    793.72014   -4273.4606            0   -4209.5431    -199.6104    22.509851    22.538242    22.288228    3.7862972    5981.8243    9969.7072 
  851000    834.68039    -4279.665            0    -4212.449   -1625.6802    22.509851    22.538242    22.288228    2.4074663    5989.7781    9961.6949 
  852000    811.43186   -4276.9846            0   -4211.6407   -804.87163    22.509851    22.538242    22.288228    3.3769292    5997.7326    9953.6839 
  853000     824.7158   -4274.2037            0   -4207.7901   -77.696347    22.509851    22.538242    22.288228    3.3479412    6005.6909    9945.6794 
  854000    834.59292   -4281.5898            0   -4214.3808   -1489.7851    22.509851    22.538242    22.288228    3.1024046    6013.6525    9937.6803 
  855000    803.49135   -4275.8761            0   -4211.1717   -826.64207    22.509851    22.538242    22.288228    2.3582173    6021.6191    9929.6897 
  856000    858.03388   -4271.4189            0   -4202.3223    1517.4684    22.509851    22.538242    22.288228    3.0027198    6029.5831    9921.6949 
  857000    791.32512   -4273.4429            0   -4209.7182   -429.63187    22.509851    22.538242    22.288228    3.1822204    6037.5435    9913.6942 
  858000    783.52159   -4277.7037            0   -4214.6074   -1886.1164    22.509851    22.538242    22.288228     2.488721    6045.5158    9905.7133 
  859000    772.85754   -4271.2872            0   -4209.0497   -422.70147    22.509851    22.538242    22.288228    3.1573539    6053.5215    9897.7868 
  860000    793.64954   -4273.3508            0   -4209.4389    92.139578    22.509851    22.538242    22.288228    2.8200344    6061.4875    9889.7953 
  861000    773.86937   -4274.4503            0   -4212.1314   -479.81158    22.509851    22.538242    22.288228    3.1960677    6069.5433    9881.9503 
  862000    782.98881   -4274.1427            0   -4211.0893   -387.49691    22.509851    22.538242    22.288228    2.5870061    6077.5124    9873.9638 
  863000    848.95077   -4274.4999            0   -4206.1347   -995.65735    22.509851    22.538242    22.288228    2.4867749    6085.4794    9865.9738 
  864000    751.58052   -4274.0074            0   -4213.4834   -751.93728    22.509851    22.538242    22.288228    2.7609612    6093.4394    9857.9726 
  865000    814.66865   -4277.0371            0   -4211.4325   -2475.7941    22.509851    22.538242    22.288228    2.6884816      6101.41    9849.9887 
  866000    864.68884   -4274.4112            0   -4204.7786   -278.00633    22.509851    22.538242    22.288228    2.6691194    6109.3742    9841.9944 
  867000     808.5774   -4276.1348            0   -4211.0208   -679.08236    22.509851    22.538242    22.288228    2.6629142    6117.3351     9833.995 
  868000    806.26896   -4278.7179            0   -4213.7898   -988.19756    22.509851    22.538242    22.288228    2.2454976    6125.2849    9825.9779 
  869000    818.18819   -4275.4175            0   -4209.5296   -407.53657    22.509851    22.538242    22.288228     2.292438    6133.2456    9817.9783 
  870000    814.33476   -4275.1729            0   -4209.5953   -673.67665    22.509851    22.538242    22.288228    3.0348257     6141.211    9809.9865 
  871000    770.91403   -4275.6259            0   -4213.5449   -1092.0277    22.509851    22.538242    22.288228    2.8908288    6149.1688    9801.9824 
  872000    847.40489   -4277.4775            0   -4209.2368   -619.34706    22.509851    22.538242    22.288228    2.6896352    6157.1342    9793.9907 
  873000    825.54104   -4277.3694            0   -4210.8893   -481.04851    22.509851    22.538242    22.288228    2.5663854    6165.0938    9785.9898 
  874000     781.9507   -4278.0917            0    -4215.122   -1459.3768    22.509851    22.538242    22.288228    3.4282164    6173.0531    9777.9884 
  875000    820.08619   -4274.5651            0   -4208.5244   -1629.5978    22.509851    22.538242    22.288228    2.8714634    6181.0179    9769.9961 
  876000     848.8376   -4279.3544            0   -4210.9983   -89.909519    22.509851    22.538242    22.288228    3.6590595    6188.9714    9761.9858 
  877000    775.17014    -4275.732            0   -4213.3083   -2090.1836    22.509851    22.538242    22.288228    2.6301701    6196.9296    9753.9831 
  878000    820.43959   -4278.8361            0   -4212.7668   -1624.8548    22.509851    22.538242    22.288228    2.7162619    6204.8903    9745.9845 
  879000    817.78795   -4273.9457            0     -4208.09   -834.88586    22.509851    22.538242    22.288228    2.9885965    6212.8498    9737.9841 
  880000    780.63315   -4277.8423            0   -4214.9786   -2178.8285    22.509851    22.538242    22.288228    3.2073187    6220.8312     9730.018 
  881000     816.3622   -4278.4039            0    -4212.663    -2660.615    22.509851    22.538242    22.288228     3.189501    6228.7923    9722.0203 
  882000    812.31569   -4276.1826            0   -4210.7676    -399.6015    22.509851    22.538242    22.288228    2.7562805    6236.7523    9714.0208 
  883000    810.97648   -4277.6723            0   -4212.3651   -114.80555    22.509851    22.538242    22.288228    2.9530423    6244.7092    9706.0167 
  884000    786.38224   -4277.5304            0   -4214.2037   -952.29179    22.509851    22.538242    22.288228    3.0523225    6252.6625    9698.0072 
  885000    790.16424   -4274.1372            0    -4210.506   -925.36392    22.509851    22.538242    22.288228    3.4772552    6260.6212    9690.0061 
  886000    786.45101   -4272.5191            0   -4209.1869     258.4246    22.509851    22.538242    22.288228    3.5713788    6268.5797    9682.0048 
  887000    778.66762   -4278.2434            0    -4215.538    -1943.233    22.509851    22.538242    22.288228    2.7807241    6276.5373    9674.0023 
  888000    816.11495   -4275.7638            0   -4210.0429   -697.37166    22.509851    22.538242    22.288228    3.0615063    6284.5035     9666.013 
  889000    811.58048   -4276.3211            0   -4210.9652   -1831.1837    22.509851    22.538242    22.288228    3.7298792    6292.4659     9658.018 
  890000    804.34257   -4276.7887            0   -4212.0158   -642.87261    22.509851    22.538242    22.288228    2.5291042    6300.4254    9650.0187 
  891000    759.05337   -4272.9262            0   -4211.8004   -932.91147    22.509851    22.538242    22.288228    3.4021802    6308.3786    9642.0097 
  892000    796.70991   -4271.9898            0   -4207.8315   -1055.5991    22.509851    22.538242    22.288228    3.7720059    6316.3352    9634.0062 
  893000    733.70179   -4273.8568            0   -4214.7725   -686.41671    22.509851    22.538242    22.288228    3.1409409    6324.2908    9626.0012 
  894000    809.34775   -4277.3559            0   -4212.1799    -1358.897    22.509851    22.538242    22.288228    3.4917968    6332.2419    9617.9896 
  895000    802.26555   -4275.3324            0   -4210.7267   -449.94112    22.509851    22.538242    22.288228    2.9347352    6340.2017    9609.9913 
  896000     795.5269   -4276.9929            0   -4212.9298   -90.113859    22.509851    22.538242    22.288228    2.5365129    6348.1706    9602.0068 
  897000    763.03656   -4279.2865            0   -4217.8399   -2353.9135    22.509851    22.538242    22.288228    2.9259193    6356.1291    9594.0066 
  898000    809.68859   -4275.6382            0   -4210.4347   -1044.6113    22.509851    22.538242    22.288228    2.8513502    6364.0945     9586.017 
  899000     759.7386   -4272.6945            0   -4211.5135   -191.13792    22.509851    22.538242    22.288228    3.0856318    6372.0664    9578.0373 
  900000    788.12475   -4281.5155            0   -4218.0485   -1699.9229    22.509851    22.538242    22.288228    2.0705235    6380.0215    9570.0322 
  901000    808.38592   -4274.9082            0   -4209.8097   -198.24184    22.509851    22.538242    22.288228    3.0823173    6387.9878    9562.0442 
  902000    811.50388   -4278.0963            0   -4212.7467   -1595.9056    22.509851    22.538242    22.288228    2.3057904    6395.9518    9554.0527 
  903000    776.90193   -4278.2087            0   -4215.6455   -2220.8714    22.509851    22.538242    22.288228    2.4529558    6403.9167    9546.0626 
  904000    854.01267   -4276.8102            0   -4208.0374   -354.66774    22.509851    22.538242    22.288228    3.7538127    6411.8701    9538.0555 
  905000    754.85441   -4274.4186            0   -4213.6309   -1333.3194    22.509851    22.538242    22.288228    2.7744398    6419.8195    9530.0426 
  906000    779.03019   -4275.7525            0    -4213.018   -1090.4328    22.509851    22.538242    22.288228    2.6941178    6427.7723    9522.0348 
  907000    802.43024   -4276.1378            0   -4211.5188   -1576.0591    22.509851    22.538242    22.288228    2.3492439    6435.7338    9514.0402 
  908000      797.819   -4275.0973            0   -4210.8497   -1327.2984    22.509851    22.538242    22.288228    2.8690201    6443.6919    9506.0405 
  909000     797.4273   -4279.6598            0   -4215.4438   -822.96767    22.509851    22.538242    22.288228    2.7537129    6451.6472    9498.0368 
  910000    819.38466   -4275.3019            0   -4209.3176   -1562.5499    22.509851    22.538242    22.288228    2.8142385    6459.6296    9490.0731 
  911000    857.86997   -4279.6137            0   -4210.5302   -1300.7699    22.509851    22.538242    22.288228    3.0496267    6467.5921    9482.0802 
  912000    782.19622    -4276.711            0   -4213.7214   -1508.3227    22.509851    22.538242    22.288228    2.6734046    6475.5465    9474.0754 
  913000    795.43244   -4276.1609            0   -4212.1054   -195.84007    22.509851    22.538242    22.288228    3.7035651     6483.502    9466.0724 
  914000    813.20398   -4274.7838            0   -4209.2972   -737.78074    22.509851    22.538242    22.288228    2.9387448    6491.4499    9458.0585 
  915000    816.93242   -4275.7076            0   -4209.9208    601.48071    22.509851    22.538242    22.288228    3.0276817    6499.4031    9450.0524 
  916000    787.14303   -4278.4173            0   -4215.0294   -1256.3765    22.509851    22.538242    22.288228    2.8749983    6507.3561    9442.0462 
  917000    824.36203   -4273.4961            0    -4207.111   -616.89604    22.509851    22.538242    22.288228    2.5192774    6515.3169    9434.0513 
  918000    805.29573   -4276.2665            0   -4211.4168   -317.22888    22.509851    22.538242    22.288228    2.8185639    6523.2822     9426.063 
  919000    817.63598   -4279.0456            0   -4213.2021   -1554.5282    22.509851    22.538242    22.288228    3.1048273    6531.2346    9418.0563 
  920000    827.55685   -4271.6852            0   -4205.0428   -550.85833    22.509851    22.538242    22.288228    3.0171241    6539.1881    9410.0512 
  921000    813.55421   -4277.3274            0   -4211.8127   -1137.3421    22.509851    22.538242    22.288228    2.8141641     6547.147     9402.054 
  922000    799.02345   -4277.1993            0   -4212.8547   -1900.5924    22.509851    22.538242    22.288228     2.283027    6555.1222    9394.0803 
  923000    828.09109   -4272.6869            0   -4206.0015    513.60744    22.509851    22.538242    22.288228    3.0750661    6563.0778    9386.0784 
  924000    810.77849   -4277.8367            0   -4212.5454   -1240.4244    22.509851    22.538242    22.288228    3.1981544    6571.0297    9378.0716 
  925000    777.04916   -4274.3679            0   -4211.7928   -987.35969    22.509851    22.538242    22.288228    3.6012271    6578.9959    9370.0851 
  926000    851.40903   -4274.6564            0   -4206.0932   -140.35538    22.509851    22.538242    22.288228      2.99165    6586.9536    9362.0866 
  927000     795.5451   -4275.5679            0   -4211.5034    -2485.608    22.509851    22.538242    22.288228     3.061659     6594.908    9354.0835 
  928000    791.86502   -4276.6463            0   -4212.8782   -1050.2316    22.509851    22.538242    22.288228     3.941411    6602.8675    9346.0878 
  929000    857.35056   -4275.3889            0   -4206.3473   -1015.0696    22.509851    22.538242    22.288228    2.7881204    6610.8192    9338.0811 
  930000    780.29362   -4277.5009            0   -4214.6646   -1161.7752    22.509851    22.538242    22.288228    2.5950575    6618.7692    9330.0722 
  931000    813.12061    -4276.706            0   -4211.2262   -1290.2395    22.509851    22.538242    22.288228    2.6837326    6626.7179    9322.0616 
  932000     776.6232   -4272.3279            0   -4209.7871    517.74111    22.509851    22.538242    22.288228    3.2976814    6634.6832    9314.0745 
  933000    774.89605   -4278.5271            0   -4216.1254   -1842.0914    22.509851    22.538242    22.288228    2.4389268     6642.701    9306.1609 
  934000    786.82764   -4273.7146            0   -4210.3521   -974.13799    22.509851    22.538242    22.288228    2.3944664    6650.7157    9298.2428 
  935000    805.90784   -4276.4373            0   -4211.5383    -575.1041    22.509851    22.538242    22.288228    3.9057068    6658.7154    9290.3035 
  936000    778.76492   -4279.3803            0   -4216.6671   -2348.9132    22.509851    22.538242    22.288228    2.3222159    6666.7085    9282.3549 
  937000    806.32099   -4275.7783            0   -4210.8461    -730.5921    22.509851    22.538242    22.288228     3.035264    6674.7547      9274.48 
  938000    793.65481   -4276.5754            0   -4212.6631   -1778.1916    22.509851    22.538242    22.288228    2.7383865    6682.7273    9266.5026 
  939000    750.76434   -4277.7191            0   -4217.2607   -937.68303    22.509851    22.538242    22.288228    2.9521356    6690.7233    9258.5575 
  940000    806.47207   -4276.8402            0   -4211.8957   -999.30286    22.509851    22.538242    22.288228    4.3566153    6698.6931    9250.5762 
  941000    791.11169   -4275.1334            0   -4211.4259   -213.79031    22.509851    22.538242    22.288228    2.4171547    6706.6614    9242.5928 
  942000    786.43921   -4280.1686            0   -4216.8374   -602.70929    22.509851    22.538242    22.288228    2.5016618    6714.6531    9234.6416 
  943000    782.17047   -4273.2568            0   -4210.2693    157.55529    22.509851    22.538242    22.288228    3.0650373     6722.725    9226.8006 
  944000    825.75789   -4277.7133            0   -4211.2157   -173.26382    22.509851    22.538242    22.288228    2.6217342     6730.718    9218.8507 
  945000    773.92331   -4279.3862            0   -4217.0628   -2182.6384    22.509851    22.538242    22.288228    3.4247619     6738.687    9210.8681 
  946000    791.61162   -4276.0452            0   -4212.2974   -809.13927    22.509851    22.538242    22.288228    2.7990208    6746.6435    9202.8684 
  947000    836.70356   -4276.5364            0   -4209.1575   -1133.6196    22.509851    22.538242    22.288228    2.7940868    6754.6053    9194.8759 
  948000    767.37794   -4277.6449            0   -4215.8487   -341.08433    22.509851    22.538242    22.288228    4.1578818    6762.5741    9186.8931 
  949000      821.642   -4278.3676            0   -4212.2015   -2017.3654    22.509851    22.538242    22.288228    3.5743039    6770.5412     9178.908 
  950000    794.12292   -4275.4739            0   -4211.5239   -1485.5374    22.509851    22.538242    22.288228     2.765871    6778.4992    9170.9107 
  951000    787.14405   -4274.3461            0   -4210.9581   -1763.8946    22.509851    22.538242    22.288228    2.5637247    6786.4619    9162.9198 
  952000    798.46553   -4274.8575            0   -4210.5578   -698.93724    22.509851    22.538242    22.288228    3.1473005     6794.424    9154.9282 
  953000    775.67903   -4278.0134            0   -4215.5487   -1579.1933    22.509851    22.538242    22.288228    2.9823443    6802.3845    9146.9344 
  954000    823.58862    -4275.598            0   -4209.2751   -906.61634    22.509851    22.538242    22.288228    3.1109552    6810.3441    9138.9395 
  955000    828.84493   -4277.8434            0   -4211.0973    47.645038    22.509851    22.538242    22.288228    3.3384304    6818.3137    9130.9581 
  956000    799.64165   -4278.3889            0   -4213.9945   -1455.6022    22.509851    22.538242    22.288228     2.680775    6826.2825    9122.9756 
  957000    824.10706   -4278.3788            0   -4212.0143   -871.15687    22.509851    22.538242    22.288228    2.5095518    6834.2588    9115.0032 
  958000    828.85441   -4276.5592            0   -4209.8124   -972.56759    22.509851    22.538242    22.288228    2.6487369    6842.2169    9107.0066 
  959000    817.75666   -4278.3814            0   -4212.5282   -1390.9283    22.509851    22.538242    22.288228    2.7952261    6850.1714    9099.0053 
  960000    777.53847   -4277.7492            0   -4215.1348   -604.94315    22.509851    22.538242    22.288228     2.723746    6858.1279    9091.0067 
  961000    805.12955   -4273.4089            0   -4208.5725   -1898.5015    22.509851    22.538242    22.288228    3.1851274    6866.0904    9083.0162 
  962000      787.696   -4276.3501            0   -4212.9177   -784.31373    22.509851    22.538242    22.288228    2.4003095    6874.0521    9075.0247 
  963000    758.70249   -4275.9986            0    -4214.901   -628.38613    22.509851    22.538242    22.288228    2.3722678    6882.0099    9067.0282 
  964000    835.32639   -4275.6625            0   -4208.3944    62.616631    22.509851    22.538242    22.288228    2.9730152     6889.978    9059.0451 
  965000    791.82639   -4277.4883            0   -4213.7233    -301.2286    22.509851    22.538242    22.288228    2.7739645    6897.9447    9051.0604 
  966000    792.65213   -4277.7291            0   -4213.8975   -1311.3543    22.509851    22.538242    22.288228    2.3353165    6905.9035    9043.0654 
  967000    779.21098   -4274.1059            0   -4211.3568   -88.106165    22.509851    22.538242    22.288228    3.2786333    6913.8652    9035.0741 
  968000    808.37319   -4276.1488            0   -4211.0512   -1235.3094    22.509851    22.538242    22.288228    3.4128727    6921.8258    9027.0816 
  969000    784.30077   -4278.3624            0   -4215.2034   -1479.2197    22.509851    22.538242    22.288228    2.4639841    6929.7798    9019.0805 
  970000    817.36855    -4275.329            0   -4209.5071    1075.1237    22.509851    22.538242    22.288228    3.4572357    6937.7438    9011.0925 
  971000    835.65208   -4278.4944            0   -4211.2001   -1882.1838    22.509851    22.538242    22.288228    2.2213658    6945.7086    9003.1057 
  972000    815.74031   -4279.0726            0   -4213.3818   -1149.0214    22.509851    22.538242    22.288228    3.4222754    6953.6649    8995.1078 
  973000    810.05948   -4275.4839            0   -4210.2505    132.42753    22.509851    22.538242    22.288228    3.2890537     6961.631    8987.1227 
  974000    820.14261   -4273.5639            0   -4207.5186    116.47674    22.509851    22.538242    22.288228    3.2718619    6969.6911    8979.2588 
  975000    801.70875   -4279.3305            0   -4214.7697   -2110.7938    22.509851    22.538242    22.288228    2.5648557    6977.6688    8971.2885 
  976000    788.44133   -4273.0124            0     -4209.52   -90.106673    22.509851    22.538242    22.288228    2.7312812    6985.6429    8963.3135 
  977000    842.72363   -4277.0341            0   -4209.1703   -407.68801    22.509851    22.538242    22.288228    3.2627166    6993.6672    8955.4029 
  978000    807.76787   -4277.8957            0   -4212.8469   -2359.7652    22.509851    22.538242    22.288228    2.2743116    7001.6615    8947.4535 
  979000    792.53255   -4278.9034            0   -4215.0815   -1854.3217    22.509851    22.538242    22.288228    2.5727663     7009.646    8939.4917 
  980000    831.81721   -4275.5462            0   -4208.5607   -47.392579    22.509851    22.538242    22.288228    2.6479995    7017.6209    8931.5175 
  981000    803.92282   -4277.6883            0   -4212.9492   -1035.7016    22.509851    22.538242    22.288228    2.2394594    7025.6723    8923.6405 
  982000    791.85029   -4277.6292            0   -4213.8622   -2168.5037    22.509851    22.538242    22.288228    3.2064473    7033.6455    8915.6641 
  983000    820.31614   -4276.2339            0   -4210.1746   -491.68522    22.509851    22.538242    22.288228    2.9548781    7041.6336    8907.7063 
  984000    816.05505   -4276.4963            0   -4210.7801   -1179.3287    22.509851    22.538242    22.288228    3.9267974    7049.5953    8899.7154 
  985000    785.78569   -4278.8242            0   -4215.5456   -1577.1469    22.509851    22.538242    22.288228    2.8735375     7057.562    8891.7306 
  986000     802.3251   -4273.3101            0   -4208.6996   -1008.8397    22.509851    22.538242    22.288228    3.4854427    7065.5285    8883.7458 
  987000    810.73393   -4276.3039            0   -4211.0162   -1156.1793    22.509851    22.538242    22.288228    2.8590807    7073.4874    8875.7514 
  988000    819.19979   -4278.1459            0   -4212.1765   -189.70846    22.509851    22.538242    22.288228    3.1586608    7081.4595    8867.7736 
  989000    794.44812   -4275.2306            0   -4211.2545    270.90029    22.509851    22.538242    22.288228     2.446021     7089.415    8859.7751 
  990000    846.70938   -4273.6027            0   -4205.4179   -570.36721    22.509851    22.538242    22.288228    3.0788467    7097.3771     8851.785 
  991000    780.57813   -4275.7355            0   -4212.8763   -1521.1503    22.509851    22.538242    22.288228    2.7850295    7105.3397    8843.7955 
  992000    805.13596   -4276.4847            0   -4211.6478   -919.77382    22.509851    22.538242    22.288228    2.5232852     7113.307    8835.8118 
  993000    821.14337   -4271.2712            0   -4205.1453     812.0529    22.509851    22.538242    22.288228    2.6477634    7121.2751    8827.8293 
  994000    800.88161   -4276.4725            0   -4211.9783   -1217.5151    22.509851    22.538242    22.288228    2.9578293    7129.2427    8819.8461 
  995000    800.06761   -4276.8261            0   -4212.3974   -949.78502    22.509851    22.538242    22.288228    3.9591505    7137.2077    8811.8597 
  996000    815.32928   -4273.7249            0   -4208.0672    99.797715    22.509851    22.538242    22.288228     2.954182    7145.1732    8803.8741 
  997000    768.02505   -4274.3427            0   -4212.4944    212.43109    22.509851    22.538242    22.288228    3.0503959    7153.1351     8795.884 
  998000    781.68678   -4276.5623            0   -4213.6138     -962.096    22.509851    22.538242    22.288228    3.0682086    7161.0878    8787.8828 
  999000    811.72612   -4273.4182            0   -4208.0506   -263.92119    22.509851    22.538242    22.288228    2.9304697    7169.0448     8779.887 
 1000000    749.46385   -4277.5135            0   -4217.1599   -2402.3443    22.509851    22.538242    22.288228    2.8101116    7177.0032    8771.8928 
 1001000    832.93332   -4277.8752            0   -4210.7999   -819.15332    22.509851    22.538242    22.288228    3.8276828    7184.9645    8763.9023 
 1002000    809.75467   -4275.4393            0   -4210.2305   -439.53578    22.509851    22.538242    22.288228    2.8988068    7192.9291    8755.9159 
 1003000    774.96717   -4278.5859            0   -4216.1785   -1964.6419    22.509851    22.538242    22.288228    2.8598925    7200.9084    8747.9474 
 1004000    790.96054   -4275.8048            0   -4212.1095   -706.27663    22.509851    22.538242    22.288228    2.8315666    7208.8824    8739.9725 
 1005000    787.24371   -4274.4631            0   -4211.0671   -1100.3484    22.509851    22.538242    22.288228     3.134827    7216.8493    8731.9889 
 1006000    769.09861   -4276.8394            0   -4214.9046   -726.91026    22.509851    22.538242    22.288228    3.3833102    7224.8027    8723.9891 
 1007000     799.7309   -4275.6407            0   -4211.2392   -411.34781    22.509851    22.538242    22.288228    3.0949964    7232.7625    8715.9972 
 1008000    800.93236   -4274.3077            0   -4209.8093   -431.53697    22.509851    22.538242    22.288228    3.1825195    7240.7204     8708.003 
 1009000    769.45391   -4276.2585            0   -4214.2951   -1110.9967    22.509851    22.538242    22.288228    2.3598091    7248.6862    8700.0183 
 1010000    784.94917   -4275.9504            0   -4212.7392   -679.77521    22.509851    22.538242    22.288228    3.9237487    7256.7215    8692.1169 
 1011000    840.57989   -4277.0468            0   -4209.3557    -1281.954    22.509851    22.538242    22.288228    2.4287697    7264.7029    8684.1509 
 1012000    815.63763   -4281.1894            0   -4215.5069    -1693.176    22.509851    22.538242    22.288228    2.5396041    7272.6846    8676.1852 
 1013000     825.6309   -4279.5389            0   -4213.0516   -1990.1918    22.509851    22.538242    22.288228    2.5095545     7280.653    8668.2036 
 1014000    828.06363   -4277.3357            0   -4210.6525    125.41545    22.509851    22.538242    22.288228    2.4412267    7288.6038    8660.2011 
 1015000    778.62448   -4276.8146            0   -4214.1127   -2452.6162    22.509851    22.538242    22.288228    3.2657809    7296.5624    8652.2078 
 1016000    789.65025   -4279.6438            0    -4216.054   -3085.8932    22.509851    22.538242    22.288228    3.0574225    7304.5188    8644.2122 
 1017000    794.35551    -4272.918            0   -4208.9493    1542.6724    22.509851    22.538242    22.288228    3.0777449    7312.4717    8636.2125 
 1018000     750.8819   -4274.3457            0   -4213.8778   -1574.8287    22.509851    22.538242    22.288228      3.00144     7320.429     8628.218 
 1019000    807.87164   -4280.4613            0   -4215.4042   -1548.8617    22.509851    22.538242    22.288228    3.0086427    7328.3902    8620.2283 
 1020000    795.44493   -4276.2766            0   -4212.2202   -854.61262    22.509851    22.538242    22.288228     2.970061    7336.3464    8612.2327 
 1021000    793.10391   -4273.2717            0   -4209.4038   -436.97751    22.509851    22.538242    22.288228    2.7407172    7344.3082    8604.2438 
 1022000    764.90299   -4276.8385            0   -4215.2416   -2519.5944    22.509851    22.538242    22.288228     2.552132    7352.2764    8596.2625 
 1023000    810.71649   -4276.5681            0   -4211.2818   -454.69947    22.509851    22.538242    22.288228    3.2689936    7360.2394     8588.275 
 1024000    843.46299   -4277.4691            0   -4209.5458   -127.67964    22.509851    22.538242    22.288228    3.7504416    7368.1901    8580.2733 
 1025000    776.22516   -4276.6006            0   -4214.0919   -571.94284    22.509851    22.538242    22.288228    2.9280067    7376.1436     8572.275 
 1026000    737.85834   -4278.8953            0   -4219.4762   -2274.6289    22.509851    22.538242    22.288228    2.6784566     7384.107    8564.2883 
 1027000    797.43515   -4275.5351            0   -4211.3184   -1182.5336    22.509851    22.538242    22.288228    3.7732006    7392.0659    8556.2964 
 1028000    832.08446   -4277.5343            0   -4210.5274   -1464.9147    22.509851    22.538242    22.288228    3.6161247    7400.0372    8548.3188 
 1029000    768.37382   -4278.9588            0   -4217.0824   -1509.1727    22.509851    22.538242    22.288228    2.6460626    7408.0007    8540.3324 
 1030000     833.2344   -4276.8053            0   -4209.7057   -556.57382    22.509851    22.538242    22.288228    3.1244677    7415.9764      8532.36 
 1031000    751.76333   -4272.1127            0   -4211.5739   -352.09735    22.509851    22.538242    22.288228    2.6951218    7423.9324    8524.3649 
 1032000     762.2839   -4277.2535            0   -4215.8675   -1126.5843    22.509851    22.538242    22.288228    3.4245214    7431.8887    8516.3703 
 1033000     797.1073   -4272.6225            0   -4208.4321   -283.07031    22.509851    22.538242    22.288228    2.5920829    7439.8522    8508.3841 
 1034000    808.26452   -4277.4885            0   -4212.3997   -919.15742    22.509851    22.538242    22.288228    2.9719521    7447.8158    8500.3979 
 1035000    769.38975   -4275.8815            0   -4213.9233   -760.19906    22.509851    22.538242    22.288228    2.6852016    7455.7873    8492.4208 
 1036000    780.64394   -4274.2095            0    -4211.345   -812.61246    22.509851    22.538242    22.288228    3.6459143     7463.737     8484.419 
 1037000     802.3371   -4276.7775            0   -4212.1661   -1263.8208    22.509851    22.538242    22.288228    2.8044005    7471.6988    8476.4309 
 1038000    810.34004   -4279.9941            0   -4214.7382   -1549.9858    22.509851    22.538242    22.288228    2.7736435    7479.6508     8468.432 
 1039000    812.56466   -4274.9989            0   -4209.5638   -718.10867    22.509851    22.538242    22.288228    2.9794919    7487.5991    8460.4288 
 1040000    837.67035   -4278.1813            0   -4210.7245   -2254.0364    22.509851    22.538242    22.288228    2.5056386    7495.5564     8452.436 
 1041000    760.60977   -4275.7767            0   -4214.5255   -1694.1596    22.509851    22.538242    22.288228    2.9349123    7503.5159    8444.4456 
 1042000    802.83163   -4274.3983            0    -4209.747    1051.1651    22.509851    22.538242    22.288228    3.2609127    7511.4775    8436.4578 
 1043000      773.941   -4274.3257            0   -4212.0009   -586.67644    22.509851    22.538242    22.288228    3.2172047    7519.4443    8428.4757 
 1044000    777.43514    -4277.912            0   -4215.3058   -1527.0874    22.509851    22.538242    22.288228     2.581718    7527.3949    8420.4757 
 1045000     808.2044   -4274.3015            0   -4209.2176   -273.18763    22.509851    22.538242    22.288228    2.6421871     7535.356    8412.4873 
 1046000    768.30471   -4274.0471            0   -4212.1762   -791.74079    22.509851    22.538242    22.288228    3.2362529     7543.325     8404.508 
 1047000    815.14998   -4277.9477            0   -4212.3044    -741.2767    22.509851    22.538242    22.288228    2.5589734    7551.2672    8396.4988 
 1048000    826.64608    -4271.834            0    -4205.265   -149.95073    22.509851    22.538242    22.288228    3.1641698    7559.2263    8388.5085 
 1049000    770.65931   -4275.1569            0   -4213.0964   -300.33436    22.509851    22.538242    22.288228    3.4460895    7567.1899    8380.5233 
 1050000    798.57604   -4276.0554            0   -4211.7468   -1100.5827    22.509851    22.538242    22.288228    3.3160185    7575.1564    8372.5413 
 1051000     807.7561   -4271.8423            0   -4206.7944    321.77386    22.509851    22.538242    22.288228    3.1754605    7583.1156    8364.5512 
 1052000    816.34586   -4276.8427            0   -4211.1031   -1542.6456    22.509851    22.538242    22.288228    2.7897331    7591.0722    8356.5584 
 1053000    780.41823   -4275.3964            0     -4212.55    -1207.657    22.509851    22.538242    22.288228     2.945756    7599.0288    8348.5657 
 1054000    816.07939   -4276.3567            0   -4210.6386   -123.97785    22.509851    22.538242    22.288228    3.1786566    7606.9892    8340.5773 
 1055000    824.96678   -4275.7849            0   -4209.3511   -507.87455    22.509851    22.538242    22.288228     2.845164    7614.9516     8332.591 
 1056000    757.57382   -4276.1319            0   -4215.1252   -1931.0644    22.509851    22.538242    22.288228    2.5230331    7622.8972    8324.5865 
 1057000    805.51207   -4274.2177            0   -4209.3506   -1200.3838    22.509851    22.538242    22.288228    3.1098548    7630.8573    8316.5978 
 1058000    862.85058   -4280.8376            0   -4211.3531   -1728.3393    22.509851    22.538242    22.288228    3.1680821    7638.8239    8308.6164 
 1059000    791.77703   -4279.2649            0   -4215.5038   -2208.9002    22.509851    22.538242    22.288228    2.7391797    7646.7732    8300.6162 
 1060000    805.95156   -4274.1476            0    -4209.245    14.823406    22.509851    22.538242    22.288228    2.9284425    7654.7302    8292.6244 
 1061000    796.31813    -4274.882            0   -4210.7552   -268.51771    22.509851    22.538242    22.288228    2.9364885    7662.7062    8284.6533 
 1062000    774.43166   -4276.8891            0   -4214.5249   -1681.6504    22.509851    22.538242    22.288228     2.924195    7670.6515     8276.649 
 1063000    802.09321   -4275.9773            0   -4211.3854   -132.12341    22.509851    22.538242    22.288228    2.8072733    7678.5936    8268.6413 
 1064000    822.06707   -4275.5791            0   -4209.3788   -401.98634    22.509851    22.538242    22.288228    3.0937821    7686.5479    8260.6469 
 1065000    791.71828   -4277.2089            0   -4213.4526     -608.132    22.509851    22.538242    22.288228    3.2016532    7694.5193    8252.6709 
 1066000    793.56355   -4277.4928            0   -4213.5878   -2606.9381    22.509851    22.538242    22.288228    2.8110074    7702.4811    8244.6847 
 1067000    812.55312   -4273.2421            0    -4207.808    557.23114    22.509851    22.538242    22.288228    2.6778493    7710.4315    8236.6864 
 1068000    824.00401   -4278.3032            0   -4211.9469   -2283.8128    22.509851    22.538242    22.288228    4.2051505    7718.3913    8228.6982 
 1069000    791.75509   -4275.8032            0   -4212.0439   -762.74306    22.509851    22.538242    22.288228     2.918534    7726.3582    8220.7175 
 1070000    848.30558   -4275.1695            0   -4206.8562   -1411.1691    22.509851    22.538242    22.288228    2.4954029    7734.3131    8212.7242 
 1071000    825.26155    -4275.952            0   -4209.4945    3.3537401    22.509851    22.538242    22.288228      3.06415    7742.2663    8204.7292 
 1072000     756.4806    -4273.551            0   -4212.6323    -742.0668    22.509851    22.538242    22.288228    2.9154859    7750.2327    8196.7482 
 1073000     805.4602   -4273.4942            0   -4208.6313   -268.32268    22.509851    22.538242    22.288228    3.1923663    7758.1907    8188.7584 
 1074000    802.62291   -4273.0222            0   -4208.3878   -626.64933    22.509851    22.538242    22.288228    2.3426615    7766.1549    8180.7751 
 1075000    791.89109   -4277.3776            0   -4213.6073   -1708.5171    22.509851    22.538242    22.288228    2.5314201    7774.1227    8172.7957 
 1076000    842.59402   -4275.7458            0   -4207.8925   -1679.8894    22.509851    22.538242    22.288228    3.5065061    7782.0746    8164.7996 
 1077000    801.10902   -4276.3044            0   -4211.7919   -691.68739    22.509851    22.538242    22.288228    2.8756939    7790.0283    8156.8055 
 1078000    800.63474   -4278.1892            0   -4213.7148   -1995.0916    22.509851    22.538242    22.288228    2.9598638    7797.9867    8148.8164 
 1079000    839.75206   -4275.8367            0   -4208.2122   -763.18613    22.509851    22.538242    22.288228    2.8655436    7805.9551    8140.8378 
 1080000    776.55593   -4278.7827            0   -4216.2474     -706.494    22.509851    22.538242    22.288228    2.2402521    7813.9149    8132.8502 
 1081000    790.41646   -4275.1538            0   -4211.5023   -409.53157    22.509851    22.538242    22.288228    2.3465646    7821.8721      8124.86 
 1082000    776.74567   -4272.9584            0   -4210.4078   -46.572493    22.509851    22.538242    22.288228    2.2759611    7829.8324    8116.8731 
 1083000    747.78908   -4279.3848            0   -4219.1661   -1053.2577    22.509851    22.538242    22.288228    3.1147642    7837.7898    8108.8832 
 1084000    742.92093   -4274.6776            0   -4214.8508   -844.73251    22.509851    22.538242    22.288228    2.7528582     7845.737    8100.8829 
 1085000    799.61136   -4274.1759            0    -4209.784   -1064.4769    22.509851    22.538242    22.288228    3.1217745    7853.6901    8092.8887 
 1086000    759.03795   -4273.9195            0   -4212.7948   -487.08216    22.509851    22.538242    22.288228    2.7186164    7861.6505    8084.9023 
 1087000    784.96546   -4278.3516            0    -4215.139   -2245.0109    22.509851    22.538242    22.288228    2.4071122    7869.6385    8076.9441 
 1088000    826.18873    -4277.018            0   -4210.4858   -1358.1403    22.509851    22.538242    22.288228    2.7723055    7877.7003    8069.0615 
 1089000     807.7956   -4277.0837            0   -4212.0327   -703.83204    22.509851    22.538242    22.288228    4.2776438    7885.6701    8061.0844 
 1090000    767.93979   -4279.5175            0    -4217.676   -2224.2835    22.509851    22.538242    22.288228    2.6574485    7893.6406     8053.108 
 1091000     794.5931   -4275.4266            0   -4211.4387    399.62813    22.509851    22.538242    22.288228    2.7251599    7901.6079    8045.1285 
 1092000    794.65787   -4275.2059            0   -4211.2128   -742.79447    22.509851    22.538242    22.288228    3.2455783    7909.5731    8037.1469 
 1093000    757.81946   -4279.1342            0   -4218.1077   -1139.0924    22.509851    22.538242    22.288228    3.0879862    7917.5283    8029.1551 
 1094000    818.41644   -4276.0161            0   -4210.1098   -1757.0245    22.509851    22.538242    22.288228     3.504676    7925.4868    8021.1667 
 1095000    797.50258   -4275.9531            0   -4211.7309   -1482.2915    22.509851    22.538242    22.288228    2.9232042    7933.4452    8013.1783 
 1096000    745.54118   -4275.4397            0    -4215.402   -508.62871    22.509851    22.538242    22.288228    3.0391072    7941.4063    8005.1927 
 1097000    809.38106   -4272.9251            0   -4207.7464    241.66403    22.509851    22.538242    22.288228    3.8455229     7949.385    7997.2248 
 1098000    769.98097   -4275.3086            0   -4213.3028   -1049.6354    22.509851    22.538242    22.288228    3.2140631    7957.3624    7989.2557 
 1099000    766.74613   -4274.2909            0   -4212.5455   -262.05192    22.509851    22.538242    22.288228     2.800543    7965.3284     7981.275 
 1100000     780.9152   -4274.2026            0   -4211.3162   -451.19505    22.509851    22.538242    22.288228    3.0518082    7973.2909    7973.2909 
 1101000    782.63058   -4272.5606            0   -4209.5361   -895.92248    22.509851    22.538242    22.288228    2.7616926    7981.2434    7965.2968 
 1102000    799.96432   -4275.9656            0   -4211.5452    39.888958    22.509851    22.538242    22.288228    3.0017204    7989.1919    7957.2989 
 1103000    740.11515   -4274.8167            0   -4215.2159   -788.34579    22.509851    22.538242    22.288228    3.2455641    7997.1458    7949.3064 
 1104000    839.14515   -4274.9763            0   -4207.4007    -977.2627    22.509851    22.538242    22.288228    2.4847683    8005.0948    7941.3092 
 1105000    774.76814   -4275.1256            0   -4212.7342   -1068.7306    22.509851    22.538242    22.288228    2.5558567    8013.0493    7933.3174 
 1106000    777.60789   -4275.2908            0   -4212.6708   -257.38466    22.509851    22.538242    22.288228    2.5241879    8021.0045    7925.3266 
 1107000    798.72728   -4274.9601            0   -4210.6393   -628.74362    22.509851    22.538242    22.288228    2.9415282    8028.9675    7917.3433 
 1108000    800.38243    -4277.132            0   -4212.6779   -1892.8722    22.509851    22.538242    22.288228    2.5917692      8036.92    7909.3498 
 1109000    799.96738   -4279.1743            0   -4214.7537   -1907.3576    22.509851    22.538242    22.288228    3.5039104    8044.8805    7901.3643 
 1110000    828.95845   -4274.5721            0   -4207.8169    344.12783    22.509851    22.538242    22.288228    3.1299276     8052.843    7893.3807 
 1111000    766.58956   -4275.0215            0   -4213.2887   -1804.0933    22.509851    22.538242    22.288228    3.4635475    8060.8016    7885.3935 
 1112000    772.05412   -4275.3441            0   -4213.1713   -1369.6572    22.509851    22.538242    22.288228    3.0959092     8068.755    7877.4011 
 1113000    833.74189   -4276.0438            0   -4208.9033   -505.90109    22.509851    22.538242    22.288228    2.9024795    8076.7203    7869.4204 
 1114000    775.51832   -4277.8323            0   -4215.3805   -1091.4222    22.509851    22.538242    22.288228    2.2618652    8084.6747    7861.4293 
 1115000    780.63667   -4275.6969            0   -4212.8329   -1037.7194    22.509851    22.538242    22.288228    2.5303156    8092.6259    7853.4349 
 1116000    813.63845   -4275.4595            0   -4209.9379    -947.4858    22.509851    22.538242    22.288228    2.4723166    8100.5867    7845.4501 
 1117000    788.14936   -4275.7277            0   -4212.2588   -880.86823    22.509851    22.538242    22.288228    2.8869253    8108.5568    7837.4742 
 1118000    793.48824   -4275.8944            0   -4211.9955    -1572.895    22.509851    22.538242    22.288228    2.7641484    8116.5154    7829.4873 
 1119000    805.41963   -4274.6231            0   -4209.7634   -1391.7105    22.509851    22.538242    22.288228    3.1054827    8124.4705    7821.4971 
 1120000    812.17103   -4272.8985            0   -4207.4951    488.78488    22.509851    22.538242    22.288228     2.616974    8132.4397    7813.5205 
 1121000    808.31085   -4278.5994            0   -4213.5069   -1363.1515    22.509851    22.538242    22.288228    3.0707262    8140.3914    7805.5271 
 1122000     813.9927   -4274.0493            0   -4208.4993   -352.04175    22.509851    22.538242    22.288228    2.6099381    8148.3597    7797.5497 
 1123000    828.59869   -4275.4102            0   -4208.6839   -663.80728    22.509851    22.538242    22.288228    3.2961886    8156.3065    7789.5517 
 1124000    774.42175   -4276.5105            0    -4214.147   -1613.5473    22.509851    22.538242    22.288228    3.3101762    8164.2619    7781.5621 
 1125000     809.5114   -4274.0935            0   -4208.9043   -1319.0246    22.509851    22.538242    22.288228    3.6856361    8172.2181    7773.5733 
 1126000    832.41103   -4279.2993            0    -4212.266    -1366.664    22.509851    22.538242    22.288228    2.6067912    8180.1761    7765.5862 
 1127000    773.71592   -4276.7428            0   -4214.4362   -1295.5689    22.509851    22.538242    22.288228    3.1846402    8188.1289    7757.5944 
 1128000    825.49204     -4275.89            0   -4209.4139   -354.19819    22.509851    22.538242    22.288228     2.714467    8196.0887    7749.6091 
 1129000    786.62431   -4274.8575            0   -4211.5114    35.125645    22.509851    22.538242    22.288228    2.7484379    8204.0523    7741.6276 
 1130000    828.79616   -4278.8803            0   -4212.1381   -1200.1457    22.509851    22.538242    22.288228    2.6436982    8212.0167    7733.6468 
 1131000    795.99183   -4276.3013            0   -4212.2008   -1055.0035    22.509851    22.538242    22.288228    3.1982561    8219.9739    7725.6593 
 1132000    826.61297   -4274.4301            0   -4207.8637   -531.10686    22.509851    22.538242    22.288228    3.0448864     8227.947    7717.6867 
 1133000    802.99723   -4278.5587            0   -4213.8941   -2067.6902    22.509851    22.538242    22.288228    3.2140624    8235.9214    7709.7153 
 1134000     795.6452   -4277.3864            0   -4213.3138   -826.67504    22.509851    22.538242    22.288228    2.9505258    8243.8792    7701.7285 
 1135000    794.07773   -4273.4203            0   -4209.4739   -589.96265    22.509851    22.538242    22.288228    2.7830251    8251.8793    7693.7811 
 1136000    811.14525   -4277.1439            0   -4211.8231   -1333.4871    22.509851    22.538242    22.288228    2.1954874    8259.8998    7685.8527 
 1137000    769.01944   -4278.3692            0   -4216.4407   -834.71728    22.509851    22.538242    22.288228     2.812683    8267.8846    7677.8909 
 1138000    784.74814   -4276.8353            0   -4213.6403   -1478.2934    22.509851    22.538242    22.288228    2.7528362    8275.8662    7669.9261 
 1139000    808.64692    -4275.301            0   -4210.1815   -1148.1372    22.509851    22.538242    22.288228    3.2146509    8283.8856    7661.9962 
 1140000    734.54299   -4275.4776            0   -4216.3255    -104.5501    22.509851    22.538242    22.288228    2.6296554    8291.8419    7654.0079 
 1141000    802.81626   -4275.7231            0   -4211.0731   -765.36444    22.509851    22.538242    22.288228    3.3054936    8299.8007     7646.022 
 1142000    853.94119   -4278.8174            0   -4210.0503   -1421.1233    22.509851    22.538242    22.288228    2.6380587    8307.7587    7638.0354 
 1143000    767.73327   -4277.3955            0   -4215.5707   -1975.8851    22.509851    22.538242    22.288228    2.5455531    8315.7146    7630.0468 
 1144000     795.0137   -4272.4451            0   -4208.4234    -497.0541    22.509851    22.538242    22.288228    2.5921193    8323.6811    7622.0681 
 1145000    836.57658   -4278.9183            0   -4211.5495   -2250.9064    22.509851    22.538242    22.288228    2.3917941     8331.715    7614.1511 
 1146000    765.84639   -4275.2851            0   -4213.6122     -738.412    22.509851    22.538242    22.288228    2.6454523    8339.7704    7606.2533 
 1147000    814.89059   -4277.0426            0   -4211.4202   -2376.2818    22.509851    22.538242    22.288228     2.733148    8347.7463    7598.2829 
 1148000    801.06011   -4276.5337            0    -4212.025   -430.83562    22.509851    22.538242    22.288228    2.2907244    8355.7255    7590.3155 
 1149000    755.73884   -4278.7557            0   -4217.8967   -2135.3343    22.509851    22.538242    22.288228    2.5139092    8363.6894    7582.3342 
 1150000    800.06394   -4275.3368            0   -4210.9084   -527.15063    22.509851    22.538242    22.288228    3.5487341    8371.6471    7574.3473 
 1151000    796.46697   -4275.2731            0   -4211.1343   -1320.7055    22.509851    22.538242    22.288228    3.3566649    8379.6073    7566.3628 
 1152000    765.05215   -4279.3629            0   -4217.7539   -2097.0596    22.509851    22.538242    22.288228    2.6176629    8387.5732    7558.3834 
 1153000    795.13709   -4273.9669            0   -4209.9352   -70.132666    22.509851    22.538242    22.288228    2.2176671    8395.5247    7550.3911 
 1154000     775.7899   -4274.9322            0   -4212.4586   -120.58328    22.509851    22.538242    22.288228    2.7360254    8403.4954    7542.4162 
 1155000     767.7635    -4277.326            0   -4215.4987    -568.1275    22.509851    22.538242    22.288228    3.0276695    8411.4558    7534.4319 
 1156000    818.25884   -4274.0035            0   -4208.1099    42.689789    22.509851    22.538242    22.288228    2.7713521    8419.4157    7526.4473 
 1157000    782.89828   -4277.0923            0   -4214.0463   -1689.9969    22.509851    22.538242    22.288228    2.9931639    8427.3781    7518.4651 
 1158000    767.78122   -4274.7947            0    -4212.966   -1473.0887    22.509851    22.538242    22.288228    2.7943345    8435.3365    7510.4792 
 1159000    822.29672   -4277.3377            0   -4211.1189   -1056.2967    22.509851    22.538242    22.288228    2.6222406    8443.2893    7502.4885 
 1160000    811.63571   -4278.5392            0   -4213.1789   -612.94618    22.509851    22.538242    22.288228     3.057027     8451.248    7494.5029 
 1161000    758.11665   -4274.4914            0    -4213.441   -1778.2955    22.509851    22.538242    22.288228    2.9774242     8459.213    7486.5231 
 1162000    816.11469   -4273.7704            0   -4208.0494   -729.46654    22.509851    22.538242    22.288228      3.35982    8467.1821    7478.5469 
 1163000    829.33169   -4280.4148            0   -4213.6295   -1726.6188    22.509851    22.538242    22.288228    2.9007817    8475.1451    7470.5654 
 1164000    774.91749   -4274.3576            0   -4211.9542   -6.1905975    22.509851    22.538242    22.288228    2.7325075    8483.1149    7462.5898 
 1165000    834.48977   -4275.0186            0   -4207.8179    4.4703654    22.509851    22.538242    22.288228    3.5930122    8491.0988    7454.6267 
 1166000     769.2608   -4276.6161            0   -4214.6682   -1192.6483    22.509851    22.538242    22.288228     2.615286     8499.049    7446.6339 
 1167000    795.48436   -4276.4224            0   -4212.3628   -273.44461    22.509851    22.538242    22.288228    3.4363003    8507.0013    7438.6432 
 1168000    831.67147   -4275.5663            0   -4208.5926   -688.13056    22.509851    22.538242    22.288228    2.4698905    8514.9809    7430.6763 
 1169000    822.15023   -4278.1716            0   -4211.9646   -645.03752    22.509851    22.538242    22.288228    2.4580637    8523.1055    7422.8355 
 1170000    752.28252   -4276.0452            0   -4215.4645   -1720.1861    22.509851    22.538242    22.288228    2.9008125    8531.2744    7415.0329 
 1171000    802.87162   -4278.1836            0   -4213.5291   -2346.9261    22.509851    22.538242    22.288228     2.465652    8539.2955    7407.1013 
 1172000    812.18398     -4274.46            0   -4209.0556   -1341.3549    22.509851    22.538242    22.288228    2.6956001    8547.2534    7399.1149 
 1173000    765.35033   -4277.9695            0   -4216.3366   -2254.9335    22.509851    22.538242    22.288228    2.2678543    8555.2043    7391.1224 
 1174000    801.78375    -4278.562            0   -4213.9951   -1509.6564    22.509851    22.538242    22.288228    2.9793674      8563.16    7383.1342 
 1175000      808.078   -4275.4638            0     -4210.39    383.06673    22.509851    22.538242    22.288228    2.9161144    8571.1174    7375.1475 
 1176000    821.51309    -4275.176            0   -4209.0203   -983.46077    22.509851    22.538242    22.288228    2.4363095    8579.0727    7367.1591 
 1177000    780.53472   -4277.5424            0   -4214.6867   -784.68907    22.509851    22.538242    22.288228    3.5430477    8587.0318    7359.1739 
 1178000    783.78437   -4273.4402            0   -4210.3228    728.08511    22.509851    22.538242    22.288228    3.0849238    8594.9968    7351.1939 
 1179000    805.26464   -4274.2105            0   -4209.3633   -271.63721    22.509851    22.538242    22.288228    2.5919831    8602.9518    7343.2054 
 1180000    812.88438   -4278.3504            0   -4212.8896   -1432.4905    22.509851    22.538242    22.288228     2.316467    8610.9129    7335.2221 
 1181000    784.51437   -4275.1385            0   -4211.9623   -1081.6107    22.509851    22.538242    22.288228    3.1649497    8618.8694    7327.2349 
 1182000    827.79998   -4278.1477            0   -4211.4857   -1226.5991    22.509851    22.538242    22.288228    2.4829587    8626.8362    7319.2566 
 1183000    797.53498   -4275.7555            0   -4211.5307   -1861.2557    22.509851    22.538242    22.288228    3.1250511    8634.8085    7311.2829 
 1184000     764.1409   -4274.9372            0   -4213.4017   -1340.3928    22.509851    22.538242    22.288228    2.6414503    8642.7748    7303.3042 
 1185000     806.5058    -4275.189            0   -4210.2418     -103.198    22.509851    22.538242    22.288228    2.5292126    8650.7291    7295.3154 
 1186000    822.26172     -4274.78            0    -4208.564   -306.30652    22.509851    22.538242    22.288228    3.7001718    8658.6931    7287.3347 
 1187000    787.22664   -4278.2522            0   -4214.8576   -2278.3845    22.509851    22.538242    22.288228    3.4102344    8666.6487     7279.347 
 1188000    809.93472   -4274.6162            0   -4209.3929   -881.34776    22.509851    22.538242    22.288228    3.9974858    8674.6039    7271.3591 
 1189000    807.81107   -4279.2926            0   -4214.2403   -1135.2011    22.509851    22.538242    22.288228    3.0722887    8682.5555    7263.3683 
 1190000     756.3662   -4274.8897            0   -4213.9803    -1359.481    22.509851    22.538242    22.288228    2.3754049    8690.5069    7255.3773 
 1191000    846.84685   -4277.6577            0   -4209.4619   -1811.8277    22.509851    22.538242    22.288228    2.5836462    8698.4569    7247.3853 
 1192000    795.49011   -4280.7084            0   -4216.6484    -2845.373    22.509851    22.538242    22.288228    3.4179513    8706.4101     7239.396 
 1193000    779.87053   -4277.5886            0   -4214.7863   -1552.3148    22.509851    22.538242    22.288228    2.2430783    8714.3885    7231.4276 
 1194000    835.70636   -4277.3974            0   -4210.0987   -1014.6176    22.509851    22.538242    22.288228    2.4112612    8722.3489    7223.4443 
 1195000    789.09005   -4274.8204            0   -4211.2757   -1070.3259    22.509851    22.538242    22.288228     2.934061    8730.3147    7215.4656 
 1196000    782.52776   -4278.7139            0   -4215.6977   -2607.7254    22.509851    22.538242    22.288228     2.967423     8738.268    7207.4765 
 1197000    833.93851   -4276.6485            0   -4209.4922   -682.53731    22.509851    22.538242    22.288228    2.9814987    8746.2175    7199.4844 
 1198000    812.49859   -4277.8822            0   -4212.4524   -1927.5287    22.509851    22.538242    22.288228    2.6919715    8754.1683    7191.4934 
 1199000      773.414   -4279.0893            0    -4216.807   -2411.3233    22.509851    22.538242    22.288228    2.7409762    8762.1302    7183.5117 
 1200000     822.8486   -4278.9136            0   -4212.6503   -1447.3401    22.509851    22.538242    22.288228    3.4150042    8770.0936    7175.5311 
 1201000    790.19864   -4273.6801            0   -4210.0461   -86.301325    22.509851    22.538242    22.288228    2.5581246     8778.064    7167.5564 
 1202000    735.10096   -4276.7263            0   -4217.5293   -2533.5283    22.509851    22.538242    22.288228    2.9416502    8786.0276    7159.5761 
 1203000    791.63646   -4277.7804            0   -4214.0307   -819.73049    22.509851    22.538242    22.288228    3.0741525    8793.9931    7151.5973 
 1204000    802.08022   -4274.8525            0   -4210.2617   -1054.7318    22.509851    22.538242    22.288228    2.9529393     8801.948      7143.61 
 1205000    844.06766   -4277.3025            0   -4209.3305   -785.84975    22.509851    22.538242    22.288228    2.6344565    8809.9092    7135.6278 
 1206000     792.5186   -4279.4441            0   -4215.6233    -1308.451    22.509851    22.538242    22.288228    2.8616302    8817.8684    7127.6441 
 1207000    809.33277   -4274.1889            0   -4209.0141   -940.48573    22.509851    22.538242    22.288228    2.6218532    8825.8362    7119.6673 
 1208000     786.2207    -4273.541            0   -4210.2274    924.31709    22.509851    22.538242    22.288228    2.9897234    8833.8014    7111.6885 
 1209000     782.4859   -4276.2216            0   -4213.2087   -764.79357    22.509851    22.538242    22.288228     2.504871    8841.7612    7103.7053 
 1210000     791.3204   -4279.2085            0   -4215.4842   -2203.0888    22.509851    22.538242    22.288228    2.5111352    8849.7679    7095.7599 
 1211000     831.9261    -4276.627            0   -4209.6328   -620.21715    22.509851    22.538242    22.288228     2.497643    8857.7826    7087.8206 
 1212000    799.14742   -4275.3722            0   -4211.0176   -597.27681    22.509851    22.538242    22.288228    3.0499357    8865.7394    7079.8351 
 1213000    748.32225   -4275.5772            0   -4215.3155   -1785.9751    22.509851    22.538242    22.288228    2.9902394    8873.7033    7071.8552 
 1214000     788.8027   -4274.7405            0   -4211.2189    -1011.181    22.509851    22.538242    22.288228    3.0744254    8881.6602    7063.8698 
 1215000    820.82808   -4275.8208            0   -4209.7203   -1303.7886    22.509851    22.538242    22.288228    3.1378729    8889.6184    7055.8855 
 1216000     763.2908   -4274.6023            0   -4213.1352   -1680.7165    22.509851    22.538242    22.288228    2.3862384    8897.5908    7047.9125 
 1217000    804.40029   -4278.5352            0   -4213.7576   -2273.6669    22.509851    22.538242    22.288228    3.1521303    8905.5399    7039.9209 
 1218000    803.46251   -4272.9112            0   -4208.2091   -825.17002    22.509851    22.538242    22.288228    2.6629846    8913.4981    7031.9368 
 1219000    821.40255   -4277.9647            0   -4211.8179   -1427.7424    22.509851    22.538242    22.288228    2.7221548    8921.4674    7023.9614 
 1220000    819.34956   -4277.6541            0   -4211.6727    241.71382    22.509851    22.538242    22.288228    2.9784792    8929.4273    7015.9786 
 1221000    786.41502   -4274.8892            0     -4211.56    426.41697    22.509851    22.538242    22.288228    3.3327236    8937.3817    7007.9915 
 1222000    801.44338   -4277.7562            0   -4213.2167   -590.86114    22.509851    22.538242    22.288228    2.5406879    8945.3454    7000.0118 
 1223000     767.3279   -4272.8489            0   -4211.0567   -270.28331    22.509851    22.538242    22.288228    3.0619208    8953.3073    6992.0307 
 1224000    800.32473   -4272.3287            0   -4207.8793    -96.55611    22.509851    22.538242    22.288228    3.4080535    8961.2588    6984.0416 
 1225000     806.7565   -4279.9153            0   -4214.9479   -2186.5939    22.509851    22.538242    22.288228    2.8317882     8969.207    6976.0499 
 1226000    812.14314   -4275.1149            0   -4209.7137    -421.5461    22.509851    22.538242    22.288228    2.6088696    8977.1689     6968.069 
 1227000    800.55074   -4275.4559            0   -4210.9883   -644.85647    22.509851    22.538242    22.288228    2.0844171    8985.1256     6960.084 
 1228000    787.06621   -4278.5154            0   -4215.1337   -2023.1422    22.509851    22.538242    22.288228    3.4659469    8993.0841    6952.1004 
 1229000    823.36405   -4275.3653            0   -4209.0606   -1445.1233    22.509851    22.538242    22.288228       2.6938    9001.0606    6944.1309 
 1230000    777.59125   -4276.1997            0    -4213.581   -848.09288    22.509851    22.538242    22.288228    3.1204242    9009.0236    6936.1509 
 1231000    764.55557   -4279.6476            0   -4218.0786   -2528.0903    22.509851    22.538242    22.288228      2.71108    9016.9951    6928.1775 
 1232000    787.14105   -4274.8611            0   -4211.4734   -1391.6763    22.509851    22.538242    22.288228    2.1403331    9024.9539    6920.1944 
 1233000    801.88619   -4274.5227            0   -4209.9476   -146.41511    22.509851    22.538242    22.288228     2.769394    9032.9103    6912.2094 
 1234000    775.62136    -4278.986            0    -4216.526   -1153.9039    22.509851    22.538242    22.288228    3.3014022    9040.8615    6904.2205 
 1235000      791.316   -4276.1507            0   -4212.4268   -735.82392    22.509851    22.538242    22.288228    2.3875986    9048.8167    6896.2348 
 1236000    792.59824   -4275.3265            0   -4211.4993   -253.62413    22.509851    22.538242    22.288228    2.9039832    9056.7846    6888.2587 
 1237000     824.6425   -4277.3901            0   -4210.9824   -1122.8039    22.509851    22.538242    22.288228    2.9151826     9064.776    6880.3005 
 1238000    781.02637   -4277.1872            0   -4214.2918    -1044.856    22.509851    22.538242    22.288228     2.852213    9072.7607    6872.3372 
 1239000    792.77196   -4275.8728            0   -4212.0317   -925.77611    22.509851    22.538242    22.288228    3.0282775     9080.754    6864.3804 
 1240000    803.35292   -4273.1111            0   -4208.4179   -1132.0941    22.509851    22.538242    22.288228     2.699669    9088.7394    6856.4175 
 1241000    823.38834   -4280.2283            0   -4213.9216   -353.40236    22.509851    22.538242    22.288228    2.8572664    9096.7052    6848.4397 
 1242000    799.90393   -4276.8666            0   -4212.4511   -41.589183    22.509851    22.538242    22.288228    2.6771679    9104.6528    6840.4485 
 1243000    851.34512   -4276.9693            0   -4208.4113   -805.34352    22.509851    22.538242    22.288228    3.0081833    9112.6037    6832.4596 
 1244000    837.17376   -4274.3436            0   -4206.9268   -597.87555    22.509851    22.538242    22.288228    3.0951028    9120.5747     6824.486 
 1245000    790.91553   -4277.0987            0    -4213.407   -595.55024    22.509851    22.538242    22.288228    2.9448042    9128.5378    6816.5064 
 1246000    804.68432   -4273.4178            0   -4208.6173   -25.821822    22.509851    22.538242    22.288228    2.2990956    9136.5002    6808.5263 
 1247000    824.58653   -4274.9997            0   -4208.5965   -1132.0539    22.509851    22.538242    22.288228    3.6384127    9144.4574    6800.5424 
 1248000    783.31239   -4275.6458            0   -4212.5664   -1853.1693    22.509851    22.538242    22.288228    3.5672538     9152.419    6792.5618 
 1249000    825.39511   -4275.5898            0   -4209.1215   -1794.9772    22.509851    22.538242    22.288228    3.8471051    9160.3763    6784.5781 
 1250000    801.23823   -4277.9973            0   -4213.4743   -1218.5308    22.509851    22.538242    22.288228    3.6329571    9168.3427    6776.6011 
 1251000    791.75575   -4277.3123            0   -4213.5529    -1231.098    22.509851    22.538242    22.288228    2.9571997    9176.2989    6768.6167 
 1252000    807.56333   -4274.1745            0   -4209.1422   -235.61942    22.509851    22.538242    22.288228    2.5253166    9184.2539    6760.6313 
 1253000    779.82271   -4276.3085            0   -4213.5101     -458.678    22.509851    22.538242    22.288228    2.5631252    9192.2255    6752.6583 
 1254000    812.03951   -4277.4606            0   -4212.0679    35.610824    22.509851    22.538242    22.288228    2.7764342    9200.1734    6744.6678 
 1255000    802.30371   -4272.8616            0   -4208.2529    772.54999    22.509851    22.538242    22.288228    2.3175576    9208.1336    6736.6865 
 1256000    765.57753   -4276.0553            0   -4214.4041    -1958.162    22.509851    22.538242    22.288228     2.594493    9216.0846    6728.6984 
 1257000    803.52197   -4276.3265            0   -4211.6196   -801.77246    22.509851    22.538242    22.288228    3.5341719     9224.042    6720.7151 
 1258000    824.03388   -4276.8526            0   -4210.4939   -1296.7818    22.509851    22.538242    22.288228    3.1824198    9231.9979    6712.7308 
 1259000    825.82385   -4280.7456            0   -4214.2427   -1618.8895    22.509851    22.538242    22.288228    2.8907176    9239.9442    6704.7395 
 1260000    787.93194   -4275.3094            0   -4211.8579   -466.86985    22.509851    22.538242    22.288228     3.541928    9247.9009    6696.7558 
 1261000    842.88882   -4276.5245            0   -4208.6474   -769.12252    22.509851    22.538242    22.288228    2.6267213    9255.8532     6688.769 
 1262000    775.24513   -4278.5445            0   -4216.1147    -948.7741    22.509851    22.538242    22.288228    2.3063337    9263.8033    6680.7807 
 1263000    833.06257   -4277.5604            0   -4210.4747   -298.44179    22.509851    22.538242    22.288228    2.6452515    9271.7641    6672.8001 
 1264000    811.44375   -4278.1116            0   -4212.7668   -689.60895    22.509851    22.538242    22.288228    2.6163017     9279.722    6664.8176 
 1265000    788.76671   -4279.5679            0   -4216.0493   -1498.8493    22.509851    22.538242    22.288228    3.2473769    9287.6694    6656.8274 
 1266000     788.1962   -4274.1571            0   -4210.6844    103.81544    22.509851    22.538242    22.288228    2.5325761    9295.6222    6648.8412 
 1267000    783.53553   -4275.2239            0   -4212.1265   -1624.3631    22.509851    22.538242    22.288228    3.4865076    9303.5892    6640.8653 
 1268000    772.94964   -4279.4765            0   -4217.2316   -1204.8422    22.509851    22.538242    22.288228    2.5851614    9311.5358    6632.8748 
 1269000    809.26023   -4276.6521            0   -4211.4831   -1064.2145    22.509851    22.538242    22.288228    2.7289168    9319.4864    6624.8872 
 1270000    797.53129   -4275.1828            0   -4210.9584   -1199.5731    22.509851    22.538242    22.288228    3.0250606    9327.4586    6616.9151 
 1271000    798.92965   -4280.9637            0   -4216.6266   -1987.9619    22.509851    22.538242    22.288228    2.9214096    9335.4233    6608.9376 
 1272000    782.82075    -4273.305            0   -4210.2651     3.627066    22.509851    22.538242    22.288228    3.3156967    9343.3858    6600.9586 
 1273000    779.65545   -4273.3817            0   -4210.5968   -252.19342    22.509851    22.538242    22.288228    2.9932282    9351.3414    6592.9747 
 1274000    782.86071   -4280.3302            0   -4217.2872   -1974.0996    22.509851    22.538242    22.288228    3.0317442    9359.2989    6584.9922 
 1275000    787.48964   -4277.0334            0   -4213.6176    -351.5647    22.509851    22.538242    22.288228    3.3838444    9367.2511    6577.0061 
 1276000    797.73241   -4273.2611            0   -4209.0204    -836.2409    22.509851    22.538242    22.288228    3.7885412    9375.2081    6569.0234 
 1277000    772.21778    -4276.942            0    -4214.756   -1337.2539    22.509851    22.538242    22.288228    2.4289565    9383.1571    6561.0351 
 1278000    801.14785   -4275.6922            0   -4211.1765   -6.5732394    22.509851    22.538242    22.288228    2.8065936    9391.1129    6553.0516 
 1279000    782.98991   -4272.5416            0   -4209.4881   -512.85348    22.509851    22.538242    22.288228    2.6920661    9399.0722    6545.0707 
 1280000    802.36853   -4279.3284            0   -4214.7144   -2292.4147    22.509851    22.538242    22.288228    2.5759402    9407.0308    6537.0892 
 1281000    830.79471   -4274.5705            0   -4207.6674   -20.270446    22.509851    22.538242    22.288228    2.6923608    9414.9879    6529.1067 
 1282000    811.59152   -4276.2536            0   -4210.8969   -1552.9559    22.509851    22.538242    22.288228    2.7708975    9422.9448    6521.1242 
 1283000    770.34198   -4275.0514            0   -4213.0164   -1171.6671    22.509851    22.538242    22.288228    2.6079507     9430.889     6513.133 
 1284000    847.98386   -4276.0539            0   -4207.7666   -403.51737    22.509851    22.538242    22.288228    2.6656391    9438.8358    6505.1436 
 1285000     824.7808   -4273.1061            0   -4206.6872    5.5569613    22.509851    22.538242    22.288228    3.7014508    9446.7917    6497.1605 
 1286000    819.27502   -4278.4521            0   -4212.4766   -2002.0497    22.509851    22.538242    22.288228    3.0062508    9454.7524    6489.1808 
 1287000    792.77983   -4277.4406            0   -4213.5988   -1249.9135    22.509851    22.538242    22.288228    3.0318534    9462.6997     6481.192 
 1288000    831.69899   -4273.9322            0   -4206.9562   -192.41133    22.509851    22.538242    22.288228    4.0189021    9470.6799    6473.2256 
 1289000    783.14416   -4276.3251            0   -4213.2592   -1119.0573    22.509851    22.538242    22.288228    2.9083371    9478.6253    6465.2356 
 1290000    810.52672   -4277.0024            0   -4211.7315   -2514.3252    22.509851    22.538242    22.288228    2.7910269    9486.5837    6457.2544 
 1291000    840.34773   -4273.5565            0   -4205.8841    96.956469    22.509851    22.538242    22.288228    2.6113382    9494.5382    6449.2707 
 1292000    801.29812    -4275.098            0   -4210.5702   -935.79003    22.509851    22.538242    22.288228    3.1176387    9502.5221    6441.3069 
 1293000    786.80175   -4276.6298            0   -4213.2694     -860.308    22.509851    22.538242    22.288228    2.8347396    9510.4667    6433.3166 
 1294000    809.60281   -4273.3131            0   -4208.1165   -459.90002    22.509851    22.538242    22.288228    3.0862131    9518.4329    6425.3408 
 1295000     822.2449   -4277.0305            0   -4210.8159   -44.195723    22.509851    22.538242    22.288228    2.2069647    9526.3808    6417.3527 
 1296000    772.27199   -4275.7325            0   -4213.5421   -626.96761    22.509851    22.538242    22.288228    2.8604327    9534.3369    6409.3703 
 1297000    842.71161   -4276.1121            0   -4208.2493   -198.08728    22.509851    22.538242    22.288228    3.4333033    9542.2948    6401.3891 
 1298000    824.02839   -4279.3645            0   -4213.0062   -1306.2091    22.509851    22.538242    22.288228    2.5643308    9550.2533    6393.4083 
 1299000    768.63475   -4275.3515            0   -4213.4541   -735.24873    22.509851    22.538242    22.288228    2.6035493    9558.2171    6385.4311 
 1300000    800.38216   -4273.3795            0   -4208.9255   -610.27285    22.509851    22.538242    22.288228    3.3752503    9566.1585     6377.439 
 1301000     792.4132   -4275.4406            0   -4211.6283   -450.15285    22.509851    22.538242    22.288228    3.0949609     9574.134    6369.4697 
 1302000    773.65979    -4274.814            0   -4212.5119    -521.9289    22.509851    22.538242    22.288228    2.9010159    9582.0957    6361.4912 
 1303000    830.50138   -4275.2711            0   -4208.3916   -965.84523    22.509851    22.538242    22.288228     2.846624    9590.0571    6353.5125 
 1304000    810.70146   -4277.5176            0   -4212.2326   -1685.1625    22.509851    22.538242    22.288228    3.1606521    9598.0133    6345.5304 
 1305000    799.69926   -4278.1408            0   -4213.7418   -1520.9592    22.509851    22.538242    22.288228    2.6483036    9605.9514    6337.5364 
 1306000    789.87525   -4273.9222            0   -4210.3143    1.2628064    22.509851    22.538242    22.288228    2.9747764    9613.9025     6329.551 
 1307000    788.35105   -4274.8108            0   -4211.3256    273.12938    22.509851    22.538242    22.288228    3.1492931     9621.853    6321.5654 
 1308000    803.83085   -4277.4524            0   -4212.7207    -938.6947    22.509851    22.538242    22.288228    2.4082658     9629.818    6313.5893 
 1309000    783.99379   -4275.9835            0   -4212.8492   -1527.8956    22.509851    22.538242    22.288228    2.7134209     9637.783    6305.6132 
 1310000    856.80177   -4276.9868            0   -4207.9894   -2071.6163    22.509851    22.538242    22.288228    2.5560269     9645.735    6297.6287 
 1311000    766.39053   -4276.5691            0   -4214.8524   -481.60919    22.509851    22.538242    22.288228     2.802434    9653.6936    6289.6484 
 1312000    810.53676    -4277.875            0   -4212.6032    -1075.122    22.509851    22.538242    22.288228    3.2061604    9661.6476    6281.6653 
 1313000    771.32009   -4271.7686            0   -4209.6549    211.57219    22.509851    22.538242    22.288228    3.9633271     9669.602    6273.6825 
 1314000    787.11518   -4275.2246            0    -4211.839   -433.74211    22.509851    22.538242    22.288228    2.1828941    9677.5599    6265.7019 
 1315000     778.2108   -4278.8796            0    -4216.211   -1705.8232    22.509851    22.538242    22.288228    2.6301845    9685.5154    6257.7199 
 1316000    835.57231   -4281.2099            0    -4213.922   -2353.1713    22.509851    22.538242    22.288228    2.4410024    9693.4699    6249.7371 
 1317000    797.75857   -4273.8879            0   -4209.6452   -1424.9799    22.509851    22.538242    22.288228    2.8956317    9701.4205    6241.7521 
 1318000    758.91125   -4276.8046            0   -4215.6901   -1909.0168    22.509851    22.538242    22.288228    2.9149616    9709.3693    6233.7658 
 1319000    821.68765   -4276.9143            0   -4210.7445   -207.87069    22.509851    22.538242    22.288228     2.259362    9717.3192    6225.7804 
 1320000    838.72334    -4278.017            0   -4210.4754   -161.27557    22.509851    22.538242    22.288228    2.4690518    9725.2731    6217.7975 
 1321000    774.64152   -4277.1708            0   -4214.7897   -874.24492    22.509851    22.538242    22.288228    3.0589782    9733.2221    6209.8117 
 1322000    827.65732   -4273.1954            0   -4206.5449   -164.34121    22.509851    22.538242    22.288228    2.8472535    9741.1723    6201.8266 
 1323000    782.38909   -4275.1251            0     -4212.12   -1268.0805    22.509851    22.538242    22.288228     2.770811    9749.1384    6193.8516 
 1324000    792.85441   -4276.9699            0    -4213.122   -689.89959    22.509851    22.538242    22.288228    2.9172543    9757.1691    6185.9177 
 1325000    853.17512   -4273.5811            0   -4204.8757    913.46661    22.509851    22.538242    22.288228     2.959732    9765.1303    6177.9396 
 1326000    810.13841   -4276.9614            0   -4211.7217   -1340.8156    22.509851    22.538242    22.288228     2.440447    9773.0871    6169.9587 
 1327000    811.73765   -4278.5641            0   -4213.1956   -2361.6451    22.509851    22.538242    22.288228    2.6402307    9781.0397    6161.9753 
 1328000    848.32034   -4274.4547            0   -4206.1403    193.44046    22.509851    22.538242    22.288228    3.4108563    9788.9976    6153.9953 
 1329000    813.47698   -4277.7237            0   -4212.2151    -854.6645    22.509851    22.538242    22.288228      2.96476    9797.0121    6146.0507 
 1330000    820.09006   -4278.3078            0   -4212.2667   -845.66232    22.509851    22.538242    22.288228    3.0094529     9804.969      6138.07 
 1331000    843.49546   -4274.8861            0   -4206.9602   -485.59851    22.509851    22.538242    22.288228    3.1086381    9812.9841    6130.1257 
 1332000    781.15999   -4273.5658            0   -4210.6597   -823.22751    22.509851    22.538242    22.288228    2.7643014    9820.9322    6122.1395 
 1333000    784.65863   -4277.0445            0   -4213.8567   -780.18423    22.509851    22.538242    22.288228    2.9683461    9828.8822    6114.1546 
 1334000    809.53726   -4272.7918            0   -4207.6005    11.105101    22.509851    22.538242    22.288228    2.5432953    9836.8194    6106.1618 
 1335000    787.10714   -4275.3769            0   -4211.9919   -982.85024    22.509851    22.538242    22.288228    3.7979639    9844.7829    6098.1853 
 1336000    801.79517   -4277.4974            0   -4212.9296   -854.33388    22.509851    22.538242    22.288228    4.2478318      9852.72    6090.1926 
 1337000    800.68783   -4272.8423            0   -4208.3637   -900.22446    22.509851    22.538242    22.288228    3.2791755    9860.6685     6082.207 
 1338000    800.67174   -4279.1973            0   -4214.7199   -1120.1769    22.509851    22.538242    22.288228     2.868103    9868.6094    6074.2168 
 1339000    799.40828   -4276.8014            0   -4212.4258   -478.41986    22.509851    22.538242    22.288228    2.6556694    9876.5593    6066.2321 
 1340000    814.82033   -4275.3225            0   -4209.7058    162.35185    22.509851    22.538242    22.288228    3.1051269    9884.5101    6058.2481 
 1341000    826.88678   -4279.3887            0   -4212.8003   -2379.0896    22.509851    22.538242    22.288228    2.8133653    9892.4526    6050.2591 
 1342000    752.98451   -4278.7446            0   -4218.1074   -1665.2087    22.509851    22.538242    22.288228    2.8736055    9900.3881    6042.2659 
 1343000    773.99716   -4273.6393            0     -4211.31    -2174.179    22.509851    22.538242    22.288228    2.8555485    9908.3392    6034.2822 
 1344000    791.38049   -4275.2464            0   -4211.5173    1473.0264    22.509851    22.538242    22.288228    2.7790937    9916.2971    6026.3028 
 1345000    736.75556   -4277.7529            0   -4218.4227   -1940.4129    22.509851    22.538242    22.288228    2.5389084    9924.2569    6018.3244 
 1346000    815.73284   -4275.9437            0   -4210.2535   -1436.7533    22.509851    22.538242    22.288228    2.6399892    9932.2032     6010.338 
 1347000    787.13603   -4275.5026            0   -4212.1153   -929.42965    22.509851    22.538242    22.288228    3.3747184    9940.1544    6002.3547 
 1348000    782.39123   -4278.8125            0   -4215.8073   -2454.3346    22.509851    22.538242    22.288228    3.6246127    9948.1225    5994.3815 
 1349000    791.26982   -4271.7559            0   -4208.0357    56.585783    22.509851    22.538242    22.288228    2.2261807    9956.0809    5986.4025 
 1350000    743.33997   -4273.0909            0   -4213.2304   -786.94792    22.509851    22.538242    22.288228     2.975495    9964.0353    5978.4212 
 1351000    806.63576   -4278.3885            0   -4213.4308   -1711.5036    22.509851    22.538242    22.288228    2.6745804    9971.9897    5970.4399 
 1352000    806.55649    -4276.681            0   -4211.7297   -677.95559    22.509851    22.538242    22.288228    3.4971312    9979.9447     5962.459 
 1353000    847.07308     -4277.73            0    -4209.516   -386.59837    22.509851    22.538242    22.288228    4.3373216     9987.901    5954.4789 
 1354000    814.28711   -4275.4905            0   -4209.9167   -597.12734    22.509851    22.538242    22.288228    3.2375181    9995.8486    5946.4937 
 1355000    759.85907   -4275.9936            0   -4214.8029   -1830.8916    22.509851    22.538242    22.288228    3.7644702    10003.807    5938.5151 
 1356000    803.20434   -4271.1247            0   -4206.4434    602.45204    22.509851    22.538242    22.288228    3.3950156    10011.764    5930.5351 
 1357000    805.14584   -4275.7833            0   -4210.9457   -1607.0598    22.509851    22.538242    22.288228    3.0362658    10019.719    5922.5546 
 1358000    789.77446   -4276.6538            0    -4213.054   -1789.0909    22.509851    22.538242    22.288228    2.9548817    10027.681    5914.5784 
 1359000     829.8934   -4272.1184            0   -4205.2879    554.67001    22.509851    22.538242    22.288228    3.2345202     10035.64    5906.5999 
 1360000     789.2264   -4275.5221            0   -4211.9665   -727.04759    22.509851    22.538242    22.288228    2.9870178    10043.596    5898.6197 
 1361000    816.34501   -4278.0861            0   -4212.3466   -788.29669    22.509851    22.538242    22.288228    3.0465098    10051.559    5890.6438 
 1362000    844.41586   -4273.1586            0   -4205.1586    966.38995    22.509851    22.538242    22.288228     3.085275    10059.519    5882.6667 
 1363000    805.78595   -4276.8378            0   -4211.9486   -1352.9523    22.509851    22.538242    22.288228    2.7215898    10067.477    5874.6875 
 1364000    794.88044   -4275.0291            0   -4211.0181   -1512.7646    22.509851    22.538242    22.288228    2.8848487    10075.436    5866.7096 
 1365000     776.1293   -4270.1058            0   -4207.6048     1255.759    22.509851    22.538242    22.288228    3.3005557     10083.39    5858.7283 
 1366000    787.13943   -4278.2716            0   -4214.8839   -2798.4457    22.509851    22.538242    22.288228    3.1705789    10091.348    5850.7501 
 1367000    817.71914   -4277.2701            0   -4211.4199   -694.13794    22.509851    22.538242    22.288228    3.1911066    10099.298    5842.7666 
 1368000    814.90467   -4274.9821            0   -4209.3586    38.907463    22.509851    22.538242    22.288228    3.0629258    10107.309    5834.8185 
 1369000    799.84938   -4277.2569            0   -4212.8458   -1414.2144    22.509851    22.538242    22.288228    2.9493703    10115.338    5826.8812 
 1370000    736.71076   -4276.9502            0   -4217.6236   -1979.9666    22.509851    22.538242    22.288228    3.0517055    10123.298    5818.9038 
 1371000    783.98657   -4274.3116            0   -4211.1779   -324.74219    22.509851    22.538242    22.288228    3.4162347    10131.243    5810.9176 
 1372000     800.9417   -4275.0761            0    -4210.577   -893.29634    22.509851    22.538242    22.288228    3.1838195    10139.191    5802.9335 
 1373000    748.37233   -4277.8707            0    -4217.605   -2090.8912    22.509851    22.538242    22.288228    2.3518319    10147.155    5794.9581 
 1374000    780.01298   -4275.1823            0   -4212.3686   -968.06308    22.509851    22.538242    22.288228    2.4628972    10155.115    5786.9808 
 1375000    791.11143   -4274.4195            0   -4210.7121     -619.331    22.509851    22.538242    22.288228    3.0431251    10163.082    5779.0075 
 1376000    791.36021   -4275.1345            0    -4211.407   -214.12693    22.509851    22.538242    22.288228    3.2726502     10171.04    5771.0289 
 1377000    786.26733   -4279.5828            0   -4216.2654   -2004.8692    22.509851    22.538242    22.288228     2.866141    10178.998    5763.0505 
 1378000    810.83763   -4273.8007            0   -4208.5047   -533.99711    22.509851    22.538242    22.288228    2.8835337    10186.955    5755.0716 
 1379000    752.88881   -4273.2361            0   -4212.6067    166.04589    22.509851    22.538242    22.288228    3.2510269    10194.903    5747.0876 
 1380000    814.52064   -4280.1624            0   -4214.5698   -2116.1748    22.509851    22.538242    22.288228    2.4492071    10202.856    5739.1066 
 1381000    801.36902   -4271.7945            0    -4207.261   -483.03484    22.509851    22.538242    22.288228    2.6341031    10210.812    5731.1268 
 1382000     777.7392   -4276.6101            0   -4213.9794    47.990785    22.509851    22.538242    22.288228    2.7429685    10218.766    5723.1466 
 1383000    798.03427   -4276.3235            0   -4212.0585   -1344.6809    22.509851    22.538242    22.288228    2.7997739    10226.718    5715.1653 
 1384000     856.5497   -4271.1865            0   -4202.2094    128.81813    22.509851    22.538242    22.288228    3.2228014    10234.682    5707.1903 
 1385000    839.29028    -4275.054            0   -4207.4668   -548.13887    22.509851    22.538242    22.288228    3.2366042    10242.671    5699.2294 
 1386000    753.55155   -4274.4647            0   -4213.7819    -1211.822    22.509851    22.538242    22.288228    2.5420872    10250.628    5691.2505 
 1387000    794.23401   -4275.6063            0   -4211.6474   -296.03854    22.509851    22.538242    22.288228    2.7945274    10258.586    5683.2727 
 1388000    792.94256   -4271.9206            0   -4208.0656   -1699.2566    22.509851    22.538242    22.288228    3.0341996    10266.547    5675.2959 
 1389000      829.659   -4278.8095            0   -4211.9979   -1667.9229    22.509851    22.538242    22.288228    3.1668085    10274.521    5667.3272 
 1390000    811.91921   -4277.1693            0   -4211.7862   -1454.1018    22.509851    22.538242    22.288228    2.8647346    10282.474    5659.3461 
 1391000    864.60153   -4275.8566            0    -4206.231   -417.58003    22.509851    22.538242    22.288228    2.4746465    10290.449    5651.3773 
 1392000    785.73288   -4276.5535            0   -4213.2792   -915.74537    22.509851    22.538242    22.288228    2.6597679    10298.418    5643.4053 
 1393000    803.66774    -4276.677            0   -4211.9583   -472.08347    22.509851    22.538242    22.288228    3.0268389    10306.382    5635.4308 
 1394000    837.21716   -4272.5585            0   -4205.1382    406.52234    22.509851    22.538242    22.288228    3.1948721    10314.364    5627.4657 
 1395000    793.87137     -4273.58            0   -4209.6503   -1196.5285    22.509851    22.538242    22.288228    2.4814161    10322.409    5619.5354 
 1396000    786.64458   -4277.1196            0   -4213.7718   -1761.4342    22.509851    22.538242    22.288228    2.6923797    10330.537    5611.6497 
 1397000    809.00636   -4273.5015            0   -4208.3529    148.17035    22.509851    22.538242    22.288228    3.0502518    10338.593    5603.7249 
 1398000    824.90471   -4278.7043            0   -4212.2755   -2051.5052    22.509851    22.538242    22.288228    2.3945091    10346.555    5595.7484 
 1399000    779.76714   -4276.1396            0   -4213.3456   -2013.1685    22.509851    22.538242    22.288228    2.3800829    10354.513    5587.7704 
 1400000    826.73589   -4275.1708            0   -4208.5946    100.86957    22.509851    22.538242    22.288228    2.8886319     10362.56    5579.8401 
 1401000    767.39356   -4278.3241            0   -4216.5266   -837.05214    22.509851    22.538242    22.288228    2.7752886    10370.512    5571.8587 
 1402000    771.82302    -4273.664            0   -4211.5098    619.11426    22.509851    22.538242    22.288228    2.7215591    10378.465    5563.8775 
 1403000    811.91261   -4275.9969            0   -4210.6143   -2179.0099    22.509851    22.538242    22.288228    3.1060674    10386.429    5555.9028 
 1404000    808.67895   -4278.6388            0   -4213.5166   -2079.0608    22.509851    22.538242    22.288228     2.626293    10394.392    5547.9272 
 1405000    755.58777   -4278.8174            0   -4217.9706   -3002.6282    22.509851    22.538242    22.288228    3.7908406     10402.35    5539.9491 
 1406000    802.93214   -4275.4351            0   -4210.7757   -375.51496    22.509851    22.538242    22.288228    3.1545436    10410.309    5531.9711 
 1407000    801.54032   -4276.4746            0   -4211.9273   -150.63167    22.509851    22.538242    22.288228    2.6646885     10418.26    5523.9893 
 1408000    778.19853   -4279.6899            0   -4217.0223   -2162.0984    22.509851    22.538242    22.288228    3.0768936    10426.221     5516.013 
 1409000    828.00975   -4276.8787            0   -4210.1998   -502.34308    22.509851    22.538242    22.288228    2.9714824    10434.181    5508.0361 
 1410000    816.71762   -4278.2974            0   -4212.5278   -1105.2914    22.509851    22.538242    22.288228     3.216394    10442.132    5500.0543 
 1411000    753.15415   -4278.0246            0   -4217.3738   -1202.4407    22.509851    22.538242    22.288228    2.1562592    10450.088    5492.0751 
 1412000    771.54765   -4272.7501            0   -4210.6181   -236.37339    22.509851    22.538242    22.288228    3.0309517    10458.048    5484.0985 
 1413000    814.18744   -4276.8048            0   -4211.2391   -307.76777    22.509851    22.538242    22.288228    3.4990366    10465.995    5476.1148 
 1414000     761.0545   -4277.8444            0   -4216.5574   -1210.1459    22.509851    22.538242    22.288228    2.7849061    10473.949    5468.1349 
 1415000    802.77611   -4272.6294            0   -4207.9825   -1090.0195    22.509851    22.538242    22.288228    2.5664112    10481.908    5460.1572 
 1416000    798.09172   -4277.9915            0    -4213.722   -1213.0089    22.509851    22.538242    22.288228    2.4632559    10489.861    5452.1769 
 1417000    792.55065   -4275.4453            0   -4211.6219   -526.95639    22.509851    22.538242    22.288228    2.8935558    10497.819    5444.1991 
 1418000    823.16281   -4274.6524            0   -4208.3638   -393.01026    22.509851    22.538242    22.288228    2.9740277     10505.78    5436.2231 
 1419000    773.83938   -4275.5634            0   -4213.2468    236.16891    22.509851    22.538242    22.288228    2.8858237    10513.754    5428.2538 
 1420000    779.77844    -4274.074            0   -4211.2792   -695.29366    22.509851    22.538242    22.288228     2.301384    10521.805    5420.3235 
 1421000      860.419   -4275.2012            0   -4205.9124    475.89001    22.509851    22.538242    22.288228    3.0841544     10529.76    5412.3447 
 1422000    785.96804   -4275.8819            0   -4212.5886   -62.349927    22.509851    22.538242    22.288228    2.6010653    10537.723    5404.3694 
 1423000    774.56906    -4274.707            0   -4212.3317   -475.81263    22.509851    22.538242    22.288228    3.0791003    10545.685    5396.3938 
 1424000    828.95648   -4273.2618            0   -4206.5067   -1235.6262    22.509851    22.538242    22.288228    2.8114589    10553.637    5388.4128 
 1425000    785.34787    -4276.226            0   -4212.9827   -1573.0017    22.509851    22.538242    22.288228    2.4136027    10561.599    5380.4372 
 1426000    807.56354   -4276.6143            0   -4211.5819    -1580.357    22.509851    22.538242    22.288228    2.5901243    10569.559    5372.4605 
 1427000    873.72027    -4275.489            0   -4205.1291    678.14771    22.509851    22.538242    22.288228    3.0752542    10577.518    5364.4835 
 1428000    795.19641   -4277.4548            0   -4213.4184    397.03624    22.509851    22.538242    22.288228    3.4300765    10585.477    5356.5065 
 1429000    811.36112   -4276.8653            0   -4211.5271   -886.09211    22.509851    22.538242    22.288228    2.7696364     10593.42    5348.5215 
 1430000    838.27385    -4273.963            0   -4206.4576   -486.90099    22.509851    22.538242    22.288228    2.4041259    10601.373    5340.5415 
 1431000    773.43971   -4277.1451            0   -4214.8607    -2712.047    22.509851    22.538242    22.288228    2.3189065    10609.339    5332.5678 
 1432000    841.74703   -4277.6753            0   -4209.8902   -2102.0196    22.509851    22.538242    22.288228    2.7123357    10617.291    5324.5874 
 1433000    797.25024   -4276.2519            0   -4212.0501   -1476.9339    22.509851    22.538242    22.288228    2.7391634    10625.344    5316.6573 
 1434000    800.97374   -4279.2735            0   -4214.7719   -37.294355    22.509851    22.538242    22.288228    3.3048795    10633.402    5308.7298 
 1435000    810.20193   -4274.9128            0    -4209.668   -936.83518    22.509851    22.538242    22.288228    3.0577796    10641.356    5300.7502 
 1436000    779.29803   -4278.6259            0   -4215.8698   -1991.7408    22.509851    22.538242    22.288228    2.7216635    10649.311    5292.7712 
 1437000    766.63174   -4276.6642            0   -4214.9281   -228.70603    22.509851    22.538242    22.288228    2.6670828    10657.268    5284.7935 
 1438000    811.37772   -4275.8681            0   -4210.5287   -1443.3158    22.509851    22.538242    22.288228    3.2084039     10665.22    5276.8128 
 1439000    764.39884   -4274.9599            0   -4213.4036    164.49849    22.509851    22.538242    22.288228    3.3778882    10673.172    5268.8326 
 1440000    756.09584   -4276.3712            0   -4215.4835   -950.63685    22.509851    22.538242    22.288228    3.0793303    10681.117    5260.8489 
 1441000    777.25414    -4273.285            0   -4210.6935   -762.64463    22.509851    22.538242    22.288228    2.9250084    10689.081    5252.8743 
 1442000    800.78929    -4277.679            0   -4213.1922   -1361.4866    22.509851    22.538242    22.288228    3.1609279    10697.044    5244.8992 
 1443000    730.24537   -4276.5057            0   -4217.6998   -2163.8323    22.509851    22.538242    22.288228     2.284127    10705.017    5236.9296 
 1444000    831.85939    -4277.324            0   -4210.3351   -1991.6026    22.509851    22.538242    22.288228    3.0425933    10712.975     5228.952 
 1445000    802.78073   -4277.3715            0   -4212.7243   -1174.2384    22.509851    22.538242    22.288228    2.4781961    10720.929     5220.973 
 1446000     777.6717   -4278.7565            0   -4216.1313   -1192.7932    22.509851    22.538242    22.288228    3.1462173    10728.889    5212.9968 
 1447000     803.6296    -4273.368            0   -4208.6525   -130.07992    22.509851    22.538242    22.288228    2.8172959    10736.839    5205.0154 
 1448000    795.35903   -4278.0047            0   -4213.9551   -1606.8056    22.509851    22.538242    22.288228    2.9913334    10744.788    5197.0338 
 1449000    751.91371   -4273.9894            0   -4213.4385   -394.81733    22.509851    22.538242    22.288228    2.7872071    10752.742    5189.0547 
 1450000    795.49185   -4272.3016            0   -4208.2414   -21.880486    22.509851    22.538242    22.288228    2.9558337    10760.703    5181.0791 
 1451000    821.15279   -4280.3546            0   -4214.2279   -2328.0067    22.509851    22.538242    22.288228    3.1482286    10768.661    5173.1022 
 1452000    809.60579   -4277.3096            0   -4212.1128   -429.64212    22.509851    22.538242    22.288228    2.5628966    10776.615    5165.1232 
 1453000    822.42296   -4274.6373            0   -4208.4084    -681.6835    22.509851    22.538242    22.288228    3.6462552    10784.582    5157.1502 
 1454000    806.52453   -4276.6936            0   -4211.7449   -784.01443    22.509851    22.538242    22.288228    3.0717453    10792.543    5149.1748 
 1455000    791.34856   -4275.6962            0   -4211.9697   -2234.3655    22.509851    22.538242    22.288228    2.9168726     10800.51    5141.2024 
 1456000     831.0894   -4273.4929            0    -4206.566   -203.07415    22.509851    22.538242    22.288228    3.3454868     10808.46    5133.2216 
 1457000    810.50006   -4278.0597            0   -4212.7909    -1222.511    22.509851    22.538242    22.288228    2.7149933    10816.423    5125.2471 
 1458000    796.72998    -4277.216            0   -4213.0561   -1237.0294    22.509851    22.538242    22.288228    3.0854344    10824.378    5117.2685 
 1459000    804.51069   -4270.5835            0    -4205.797   -1018.4082    22.509851    22.538242    22.288228     3.407055     10832.34    5109.2936 
 1460000    802.46815     -4275.93            0   -4211.3079   -533.79477    22.509851    22.538242    22.288228    2.6229246    10840.301    5101.3181 
 1461000    795.07322   -4278.1418            0   -4214.1153   -1999.7958    22.509851    22.538242    22.288228    3.2979931    10848.268    5093.3455 
 1462000    818.49279   -4274.0188            0   -4208.1063   -566.33822    22.509851    22.538242    22.288228    2.3455649    10856.236    5085.3736 
 1463000    775.98787   -4278.0555            0    -4215.566   -1340.0069    22.509851    22.538242    22.288228     2.331576    10864.195    5077.3969 
 1464000    822.06793   -4278.3908            0   -4212.1905   -966.15687    22.509851    22.538242    22.288228    2.9288245    10872.145    5069.4167 
 1465000    805.02968   -4274.5699            0   -4209.7416   -2287.6109    22.509851    22.538242    22.288228    2.7993664      10880.1    5061.4386 
 1466000    747.76085   -4278.6307            0   -4218.4142   -275.16089    22.509851    22.538242    22.288228    3.0341032    10888.055    5053.4605 
 1467000    778.22664   -4276.0797            0   -4213.4098    -1750.891    22.509851    22.538242    22.288228    2.8741312    10896.009    5045.4818 
 1468000    825.52283   -4276.3694            0   -4209.8908   -613.87775    22.509851    22.538242    22.288228     2.622315    10903.959    5037.5017 
 1469000    773.52779   -4279.4727            0   -4217.1813   -330.74433    22.509851    22.538242    22.288228    2.2868137    10911.921    5029.5266 
 1470000    781.78786   -4275.9886            0   -4213.0319      -1725.7    22.509851    22.538242    22.288228    3.3988577    10919.887    5021.5537 
 1471000    784.69277   -4273.6772            0   -4210.4866   -1145.6035    22.509851    22.538242    22.288228    3.0407597    10927.844    5013.5769 
 1472000    803.07429   -4277.3221            0   -4212.6513   -1278.8935    22.509851    22.538242    22.288228      2.90723    10935.798    5005.5984 
 1473000    790.43265   -4279.0616            0   -4215.4088   -860.10008    22.509851    22.538242    22.288228    2.3681036    10943.746    4997.6174 
 1474000    795.01114   -4273.0635            0    -4209.042    678.67269    22.509851    22.538242    22.288228    2.9809606    10951.697    4989.6379 
 1475000    779.02708   -4275.6021            0   -4212.8678   -1783.1447    22.509851    22.538242    22.288228     3.066446    10959.644    4981.6566 
 1476000     776.2956   -4283.1943            0   -4220.6799   -3418.7389    22.509851    22.538242    22.288228    2.9160885    10967.596    4973.6775 
 1477000     778.6095   -4276.7796            0   -4214.0789   -2390.1624    22.509851    22.538242    22.288228    3.9980773    10975.555    4965.7013 
 1478000    832.13264   -4276.1314            0   -4209.1205   -1067.4216    22.509851    22.538242    22.288228    3.1985454    10983.532    4957.7336 
 1479000    788.41444   -4276.0549            0   -4212.5646    109.29885    22.509851    22.538242    22.288228    2.6214157    10991.567     4949.792 
 1480000     780.3106   -4277.4991            0   -4214.6615    -1826.191    22.509851    22.538242    22.288228    2.3483439    10999.593    4941.8461 
 1481000    825.77698   -4277.1544            0   -4210.6554   -1769.7082    22.509851    22.538242    22.288228    2.3023124    11007.607    4933.8948 
 1482000    782.48833   -4274.7554            0   -4211.7424   -1305.6329    22.509851    22.538242    22.288228     2.379915    11015.562    4925.9168 
 1483000    773.92481   -4280.0856            0   -4217.7621   -1679.3422    22.509851    22.538242    22.288228    2.4462098    11023.506    4917.9345 
 1484000    794.60295   -4276.7089            0   -4212.7203    -366.6763    22.509851    22.538242    22.288228    2.5365089    11031.465    4909.9582 
 1485000      772.035   -4272.6588            0   -4210.4875   -141.69348    22.509851    22.538242    22.288228    4.5274313     11039.41    4901.9762 
 1486000    793.43477   -4278.4449            0   -4214.5503   -1485.2945    22.509851    22.538242    22.288228    2.7945424    11047.367    4893.9995 
 1487000     769.2463   -4275.7929            0   -4213.8462   -756.49886    22.509851    22.538242    22.288228    2.6576372    11055.328    4886.0244 
 1488000     809.2789   -4274.8262            0   -4209.6557   -97.834599    22.509851    22.538242    22.288228    3.0517712    11063.295    4878.0523 
 1489000    790.63261   -4278.8573            0   -4215.1884   -1468.2875    22.509851    22.538242    22.288228    2.7354822     11071.26     4870.079 
 1490000    750.72243    -4278.235            0   -4217.7801   -2338.6178    22.509851    22.538242    22.288228     2.592787    11079.219    4862.1032 
 1491000    834.95081    -4276.614            0   -4209.3762   -1566.2102    22.509851    22.538242    22.288228    2.5169533    11087.193    4854.1342 
 1492000    766.91777   -4273.7141            0   -4211.9549   -334.54956    22.509851    22.538242    22.288228    2.7596657    11095.319    4846.2313 
 1493000    760.09481   -4276.5769            0   -4215.3672   -1626.2013    22.509851    22.538242    22.288228    2.3837215     11103.27    4838.2521 
 1494000    860.41479   -4277.4735            0   -4208.1851   -668.07519    22.509851    22.538242    22.288228    2.9699845    11111.233    4830.2778 
 1495000    775.48652   -4276.0745            0   -4213.6253   -1074.2175    22.509851    22.538242    22.288228     2.533007    11119.189    4822.3006 
 1496000    813.68052   -4276.3674            0   -4210.8424   -466.25813    22.509851    22.538242    22.288228    3.9846597    11127.148    4814.3249 
 1497000    808.18418   -4273.5952            0   -4208.5129   -696.12486    22.509851    22.538242    22.288228    2.0219957    11135.108    4806.3494 
 1498000     784.6082    -4276.328            0   -4213.1442   -1873.8739    22.509851    22.538242    22.288228    2.2151079    11143.063    4798.3721 
 1499000     805.1459   -4276.1065            0   -4211.2689   -595.55437    22.509851    22.538242    22.288228    3.5239405    11151.017    4790.3941 
 1500000    829.57404   -4270.9441            0   -4204.1393    -76.74567    22.509851    22.538242    22.288228    2.9881075    11158.981    4782.4206 
 1501000    779.35694   -4273.1862            0   -4210.4253    257.29201    22.509851    22.538242    22.288228    2.9938472    11166.946    4774.4473 
 1502000    771.10369   -4275.9439            0   -4213.8476   -1789.1321    22.509851    22.538242    22.288228    2.7157647    11174.907    4766.4724 
 1503000    851.39269   -4277.0122            0   -4208.4503   -443.45605    22.509851    22.538242    22.288228    3.1600327    11182.866    4758.4969 
 1504000    816.95601   -4276.7516            0   -4210.9629   -1068.7949    22.509851    22.538242    22.288228    2.5127741    11190.836     4750.526 
 1505000    806.10312   -4278.6057            0    -4213.691   -836.15663    22.509851    22.538242    22.288228    3.1635293    11198.783    4742.5453 
 1506000    801.64875   -4275.0418            0   -4210.4857   -1457.6692    22.509851    22.538242    22.288228    2.8262416    11206.735    4734.5667 
 1507000    816.61718   -4275.5867            0   -4209.8253   -315.35364    22.509851    22.538242    22.288228    2.8761972    11214.701     4726.594 
 1508000    774.38772   -4277.1696            0   -4214.8088   -934.59154    22.509851    22.538242    22.288228    2.6998329    11222.649    4718.6139 
 1509000    743.83863   -4269.3746            0   -4209.4739    370.62269    22.509851    22.538242    22.288228    3.3883884      11230.6    4710.6347 
 1510000    814.53557   -4275.1585            0   -4209.5647   -1392.1243    22.509851    22.538242    22.288228     2.480824    11238.555    4702.6576 
 1511000    812.25648   -4277.6073            0    -4212.197   -502.26343    22.509851    22.538242    22.288228    2.7246345    11246.511     4694.681 
 1512000    826.02032    -4277.782            0   -4211.2634   -1145.4089    22.509851    22.538242    22.288228    3.0679231    11254.466    4686.7038 
 1513000    826.57092   -4273.0542            0   -4206.4912   -610.99964    22.509851    22.538242    22.288228    3.0321028    11262.431    4678.7312 
 1514000    794.17918    -4277.705            0   -4213.7505   -1152.6971    22.509851    22.538242    22.288228    2.6332225    11270.379    4670.7513 
 1515000    806.94265   -4276.4408            0   -4211.4584   -520.54968    22.509851    22.538242    22.288228    3.0090767    11278.333    4662.7736 
 1516000    834.94554   -4271.6988            0   -4204.4614    55.403996    22.509851    22.538242    22.288228    2.5932289    11286.291    4654.7979 
 1517000    797.64359   -4275.7483            0   -4211.5148   -1467.6043    22.509851    22.538242    22.288228    3.0884472    11294.244    4646.8203 
 1518000    769.15751   -4274.9603            0   -4213.0208   -1161.5773    22.509851    22.538242    22.288228    3.1116815      11302.2    4638.8435 
 1519000    839.89737   -4276.3618            0   -4208.7256   -751.47784    22.509851    22.538242    22.288228    3.2013281    11310.166    4630.8713 
 1520000    803.90341   -4276.5473            0   -4211.8097   -1441.0151    22.509851    22.538242    22.288228    3.4499712    11318.125     4622.896 
 1521000    776.22105   -4276.2492            0   -4213.7408   -551.22322    22.509851    22.538242    22.288228    3.0294786     11326.08    4614.9194 
 1522000    842.01024   -4276.1763            0     -4208.37    23.304712    22.509851    22.538242    22.288228     2.389249    11334.038    4606.9437 
 1523000    803.04882   -4277.6586            0   -4212.9898   -903.22536    22.509851    22.538242    22.288228    3.2022295    11341.994    4598.9673 
 1524000    791.69913   -4277.6188            0   -4213.8641   -1990.9571    22.509851    22.538242    22.288228    2.7111835    11349.949    4590.9906 
 1525000    823.75404   -4274.7746            0   -4208.4385   -166.26456    22.509851    22.538242    22.288228    2.9890359    11357.907    4583.0153 
 1526000    807.97847   -4277.7686            0   -4212.7029   -1274.3378    22.509851    22.538242    22.288228    3.2703098    11365.848     4575.033 
 1527000    802.72122   -4276.7708            0   -4212.1284    -409.1915    22.509851    22.538242    22.288228    2.6291218    11373.805    4567.0569 
 1528000    813.70251   -4274.4311            0   -4208.9044   -1978.9135    22.509851    22.538242    22.288228    2.2918397    11381.785    4559.0905 
 1529000    843.05506   -4277.8618            0   -4209.9713    359.81485    22.509851    22.538242    22.288228    3.5775597    11389.732    4551.1104 
 1530000     788.1439   -4277.9998            0   -4214.5313   -1699.3104    22.509851    22.538242    22.288228     2.486617    11397.695    4543.1373 
 1531000     816.4944   -4273.7584            0   -4208.0068   -866.00669    22.509851    22.538242    22.288228    4.6719532    11405.655    4535.1627 
 1532000    809.97623   -4274.9152            0   -4209.6886   -1321.3363    22.509851    22.538242    22.288228    2.9855511    11413.615    4527.1882 
 1533000    798.32595    -4277.833            0   -4213.5445   -2156.8321    22.509851    22.538242    22.288228    3.0431198    11421.574    4519.2131 
 1534000    775.22409   -4275.9466            0   -4213.5186   -680.86493    22.509851    22.538242    22.288228    2.6917266    11429.524    4511.2347 
 1535000    831.89526   -4274.8162            0   -4207.8244    -447.8849    22.509851    22.538242    22.288228    2.5854428    11437.484    4503.2602 
 1536000    771.08872     -4276.68            0   -4214.5849   -632.00198    22.509851    22.538242    22.288228      2.71108    11445.443    4495.2855 
 1537000    769.39598   -4274.1311            0   -4212.1723   -294.40306    22.509851    22.538242    22.288228    2.6125441    11453.399    4487.3095 
 1538000    859.19475    -4276.861            0   -4207.6708   -301.29621    22.509851    22.538242    22.288228    3.2696306    11461.361    4479.3357 
 1539000    811.70122   -4274.6093            0   -4209.2438   -1044.7964    22.509851    22.538242    22.288228    2.5442683    11469.332    4471.3657 
 1540000    806.74038   -4279.7146            0   -4214.7485   -2119.9347    22.509851    22.538242    22.288228    2.8101523    11477.303    4463.3957 
 1541000    835.50244    -4275.256            0   -4207.9737   -280.78247    22.509851    22.538242    22.288228    3.7380685    11485.266    4455.4225 
 1542000    798.36156   -4274.1615            0   -4209.8702   -490.40613    22.509851    22.538242    22.288228     3.609404     11493.22    4447.4458 
 1543000    814.24952   -4278.3501            0   -4212.7794   -630.42501    22.509851    22.538242    22.288228    2.6684064    11501.173    4439.4686 
 1544000    771.12631   -4277.5075            0   -4215.4094   -1759.1013    22.509851    22.538242    22.288228    2.6765874    11509.122    4431.4902 
 1545000    782.82162   -4273.2961            0   -4210.2562    1182.2256    22.509851    22.538242    22.288228    2.5063499    11517.079    4423.5148 
 1546000    826.15922   -4276.9307            0   -4210.4009   -889.45742    22.509851    22.538242    22.288228    2.7007022    11525.031    4415.5377 
 1547000    746.89813   -4275.9661            0   -4215.8191   -1599.3848    22.509851    22.538242    22.288228    2.4799571    11532.984    4407.5604 
 1548000    832.15882   -4277.6794            0   -4210.6664   -305.95482    22.509851    22.538242    22.288228    3.0084005     11540.95    4399.5886 
 1549000    805.45128   -4276.6414            0   -4211.7792   -1593.5118    22.509851    22.538242    22.288228    2.8581493    11548.896    4391.6093 
 1550000    755.28413   -4278.3896            0   -4217.5672   -1914.0826    22.509851    22.538242    22.288228    3.0155291    11556.849    4383.6323 
 1551000    778.93759   -4273.8757            0   -4211.1486   -1206.7913    22.509851    22.538242    22.288228    2.8827017    11564.803    4375.6562 
 1552000    757.14076   -4272.1289            0    -4211.157    231.18663    22.509851    22.538242    22.288228    2.9906196    11572.831    4367.7075 
 1553000    755.30888   -4278.1351            0   -4217.3108   -1856.8306    22.509851    22.538242    22.288228    3.2584517    11580.868    4359.7626 
 1554000    813.84532   -4277.1823            0   -4211.6441   -1937.1883    22.509851    22.538242    22.288228    2.5039533    11588.831    4351.7894 
 1555000    802.46911   -4276.0553            0   -4211.4332     969.4387    22.509851    22.538242    22.288228    2.4344436    11596.797    4343.8173 
 1556000    815.73157   -4279.4339            0   -4213.7438   -2147.1963    22.509851    22.538242    22.288228    3.1168531    11604.755    4335.8424 
 1557000    791.63028   -4274.5266            0   -4210.7773   -1616.2841    22.509851    22.538242    22.288228     3.267801    11612.715    4327.8685 
 1558000    822.02331   -4274.7467            0   -4208.5499    192.26366    22.509851    22.538242    22.288228    2.8980384     11620.67    4319.8923 
 1559000    764.59502   -4276.8686            0   -4215.2964   -1556.8018    22.509851    22.538242    22.288228    2.7506556    11628.631    4311.9187 
 1560000    837.36073   -4277.0566            0   -4209.6247   -808.85909    22.509851    22.538242    22.288228    2.4790948    11636.606    4303.9503 
 1561000    775.17483   -4275.5379            0   -4213.1138   -702.34434    22.509851    22.538242    22.288228    3.7575296    11644.581    4295.9816 
 1562000    781.71927   -4280.1591            0    -4217.208   -2215.9442    22.509851    22.538242    22.288228    2.7321291    11652.546    4288.0092 
 1563000    812.71485   -4275.8046            0   -4210.3574   -567.18361    22.509851    22.538242    22.288228    3.4618228    11660.502    4280.0338 
 1564000     803.5939   -4275.8824            0   -4211.1697   -2525.8949    22.509851    22.538242    22.288228    3.1747252    11668.453    4272.0566 
 1565000    767.49588   -4278.5421            0   -4216.7364   -2187.6224    22.509851    22.538242    22.288228    2.5214661    11676.402    4264.0787 
 1566000    790.34832   -4274.8476            0   -4211.2016   -1329.9481    22.509851    22.538242    22.288228    3.4372572    11684.483    4256.1486 
 1567000    803.49638   -4276.7362            0   -4212.0314   -904.07273    22.509851    22.538242    22.288228    4.2151508    11692.464    4248.1823 
 1568000    755.00952   -4277.9234            0   -4217.1232   -1438.3411    22.509851    22.538242    22.288228    2.0774238    11700.414    4240.2046 
 1569000      827.897   -4277.0023            0   -4210.3325   -1370.7329    22.509851    22.538242    22.288228    2.5862942    11708.365    4232.2274 
 1570000    804.91774   -4275.3034            0   -4210.4841   -1892.3484    22.509851    22.538242    22.288228    3.1309861    11716.313     4224.249 
 1571000    785.99972   -4280.7914            0   -4217.4955   -1404.3017    22.509851    22.538242    22.288228    3.1684883    11724.266    4216.2725 
 1572000    810.57382   -4274.4682            0   -4209.1934   -863.20875    22.509851    22.538242    22.288228    3.0153429    11732.225    4208.2981 
 1573000    799.52186   -4276.9353            0   -4212.5506   -758.90951    22.509851    22.538242    22.288228    2.3342255      11740.2    4200.3296 
 1574000    778.92321    -4277.171            0    -4214.445   -1452.4396    22.509851    22.538242    22.288228    3.0431861    11748.157    4192.3546 
 1575000    813.27746   -4272.9839            0   -4207.4914   -16.790767    22.509851    22.538242    22.288228    2.9910102    11756.119    4184.3814 
 1576000    752.44659   -4273.5442            0   -4212.9504   -788.07502    22.509851    22.538242    22.288228    2.8180882    11764.076    4176.4063 
 1577000    804.96155   -4277.0388            0    -4212.216   -336.52396    22.509851    22.538242    22.288228    2.5760067    11772.042    4168.4345 
 1578000    808.62175   -4276.7024            0   -4211.5848   -1246.8624    22.509851    22.538242    22.288228     2.802899    11780.001    4160.4606 
 1579000    809.81701   -4276.8052            0   -4211.5914   -901.52831    22.509851    22.538242    22.288228    2.7479334     11787.96    4152.4863 
 1580000     777.0596    -4274.017            0   -4211.4411   -937.44669    22.509851    22.538242    22.288228    2.7285928    11795.919    4144.5122 
 1581000    792.90321   -4278.2832            0   -4214.4314   -1639.0239    22.509851    22.538242    22.288228    2.6445875    11803.977    4136.5726 
 1582000    750.55627   -4274.5204            0   -4214.0788   -1817.0729    22.509851    22.538242    22.288228    2.8141663    11811.945    4128.6015 
 1583000    809.18169   -4274.4863            0   -4209.3237   -1076.9105    22.509851    22.538242    22.288228    3.3357632     11819.89    4120.6226 
 1584000    761.90636   -4275.1857            0   -4213.8301   -904.78655    22.509851    22.538242    22.288228    2.8041201    11827.853    4112.6498 
 1585000    730.01114    -4279.477            0   -4220.6899   -2443.4554    22.509851    22.538242    22.288228    2.1949369    11835.811    4104.6752 
 1586000    791.00543   -4277.1522            0   -4213.4532   -2002.0984    22.509851    22.538242    22.288228    3.5599033    11843.769    4096.7007 
 1587000      827.663   -4275.5045            0   -4208.8536   -920.88376    22.509851    22.538242    22.288228    2.8552857    11851.723    4088.7247 
 1588000    769.48034   -4277.6633            0   -4215.6977   -1727.3873    22.509851    22.538242    22.288228    3.2199348    11859.682    4080.7509 
 1589000    821.05339   -4279.8551            0   -4213.7364   -1184.0239    22.509851    22.538242    22.288228    3.0039951    11867.641    4072.7766 
 1590000    827.25039   -4278.1601            0   -4211.5424   -1903.5867    22.509851    22.538242    22.288228    2.7994681    11875.602    4064.8032 
 1591000    804.68586   -4275.4664            0   -4210.6658   -108.60176    22.509851    22.538242    22.288228    3.4923426    11883.551     4056.826 
 1592000    816.49101   -4278.6692            0   -4212.9179   -777.34063    22.509851    22.538242    22.288228    3.1274213    11891.517    4048.8544 
 1593000     782.5157   -4277.2139            0   -4214.1987   -1282.5238    22.509851    22.538242    22.288228    3.0139557     11899.48    4040.8818 
 1594000    797.30458    -4272.075            0   -4207.8688    1185.1372    22.509851    22.538242    22.288228    3.7240142     11907.51    4032.9318 
 1595000    776.09312   -4275.4028            0   -4212.9047   -468.11318    22.509851    22.538242    22.288228    2.5619714     11915.46    4024.9547 
 1596000    805.41989   -4277.4398            0   -4212.5801   -1049.6345    22.509851    22.538242    22.288228     2.374248    11923.422    4016.9817 
 1597000    818.23771   -4274.7793            0   -4208.8874   -773.25286    22.509851    22.538242    22.288228     2.860068    11931.375    4009.0057 
 1598000    834.35825   -4273.5127            0   -4206.3226   -310.01111    22.509851    22.538242    22.288228    3.8081653    11939.333    4001.0316 
 1599000    791.25997   -4276.9956            0   -4213.2762   -1233.9844    22.509851    22.538242    22.288228    2.5395305    11947.307    3993.0626 
 1600000    787.12478   -4272.9045            0   -4209.5181   -1225.0513    22.509851    22.538242    22.288228    3.2139268    11955.269    3985.0896 
 1601000     852.7957   -4276.3915            0   -4207.7167   -1293.3058    22.509851    22.538242    22.288228    3.4444895    11963.234    3977.1179 
 1602000    795.33083    -4278.136            0   -4214.0887   -1382.4961    22.509851    22.538242    22.288228    2.3497623    11971.186    3969.1417 
 1603000    805.16394    -4273.311            0   -4208.4719    655.80706    22.509851    22.538242    22.288228    3.5758322    11979.139    3961.1658 
 1604000    804.41599   -4278.2846            0   -4213.5058   -1394.0111    22.509851    22.538242    22.288228    2.9842874    11987.107     3953.195 
 1605000    779.90916   -4276.2677            0   -4213.4623   -1137.2807    22.509851    22.538242    22.288228     3.081139    11995.072    3945.2229 
 1606000     789.4541   -4272.8836            0   -4209.3096   -143.50455    22.509851    22.538242    22.288228    2.8950919    12003.033    3937.2498 
 1607000    784.44988   -4274.8826            0   -4211.7116   -995.46489    22.509851    22.538242    22.288228    2.7613287    12010.988    3929.2747 
 1608000    818.41179   -4277.6852            0   -4211.7793   -432.36638    22.509851    22.538242    22.288228    2.9517331    12018.953    3921.3029 
 1609000    822.82627    -4275.996            0   -4209.7346    775.84206    22.509851    22.538242    22.288228     3.425714    12026.914      3913.33 
 1610000    824.23182   -4276.5801            0   -4210.2055   -402.97954    22.509851    22.538242    22.288228    2.6520402    12034.869    3905.3547 
 1611000    800.19993   -4279.1703            0   -4214.7309   -1519.1069    22.509851    22.538242    22.288228    2.7018227    12042.829    3897.3816 
 1612000    821.70675    -4273.421            0   -4207.2497   -317.01723    22.509851    22.538242    22.288228    2.9679698    12050.778    3889.4044 
 1613000    803.59146   -4275.6306            0   -4210.9182   -1566.8255    22.509851    22.538242    22.288228    2.4335171    12058.733    3881.4294 
 1614000    773.68714   -4276.5418            0   -4214.2375   -2373.7133    22.509851    22.538242    22.288228    2.5542167    12066.691    3873.4555 
 1615000    866.89802   -4276.2501            0   -4206.4397   -1107.0978    22.509851    22.538242    22.288228    2.8678127    12074.652    3865.4826 
 1616000    750.96462   -4272.4423            0   -4211.9679     -382.984    22.509851    22.538242    22.288228    3.2508637    12082.622    3857.5125 
 1617000    791.34535   -4276.3666            0   -4212.6403   -1372.6577    22.509851    22.538242    22.288228    2.4483809    12090.591    3849.5422 
 1618000    851.86172   -4273.9263            0   -4205.3267   -274.11281    22.509851    22.538242    22.288228    3.0074899    12098.538    3841.5647 
 1619000    813.81164   -4275.5124            0   -4209.9769    444.60613    22.509851    22.538242    22.288228    3.1737646    12106.498    3833.5916 
 1620000    803.34416   -4277.2215            0   -4212.5289   -1011.0975    22.509851    22.538242    22.288228    2.9582666    12114.484    3825.6266 
 1621000    846.66038   -4280.0333            0   -4211.8525   -1760.8148    22.509851    22.538242    22.288228    2.2179121    12122.519    3817.6769 
 1622000    856.07419   -4276.0296            0   -4207.0908    86.512796    22.509851    22.538242    22.288228    2.5033444    12130.572    3809.7328 
 1623000    779.02783   -4277.4775            0   -4214.7431   -2092.7197    22.509851    22.538242    22.288228    4.1066295    12138.579    3801.7743 
 1624000    808.45783   -4275.4493            0   -4210.3449   -49.477626    22.509851    22.538242    22.288228    3.1656272    12146.535    3793.7997 
 1625000    788.38548   -4275.1422            0   -4211.6542   -511.22021    22.509851    22.538242    22.288228    2.3665203    12154.494     3785.826 
 1626000    778.14212   -4277.9836            0   -4215.3205   -1464.0662    22.509851    22.538242    22.288228    3.1087975    12162.453    3777.8524 
 1627000    809.51167   -4274.9409            0   -4209.7517   -213.86454    22.509851    22.538242    22.288228    2.3242983    12170.401    3769.8755 
 1628000    798.45809   -4278.1029            0   -4213.8038   -303.39392    22.509851    22.538242    22.288228    3.0956939    12178.375    3761.9065 
 1629000    769.54343   -4281.5421            0   -4219.5715   -2967.5243    22.509851    22.538242    22.288228     2.106549    12186.326    3753.9302 
 1630000    782.82919    -4276.105            0   -4213.0645   -2132.2084    22.509851    22.538242    22.288228    2.5449822    12194.271    3745.9526 
 1631000    808.55578   -4273.9914            0   -4208.8792   -91.118593    22.509851    22.538242    22.288228    3.3458457    12202.238    3737.9814 
 1632000    767.03633   -4277.2523            0   -4215.4835   -828.37913    22.509851    22.538242    22.288228    2.7834623    12210.192    3730.0065 
 1633000    787.03817   -4276.1257            0   -4212.7463    236.70877    22.509851    22.538242    22.288228     3.187503    12218.138    3722.0291 
 1634000     802.0782   -4275.5194            0   -4210.9287    127.05939    22.509851    22.538242    22.288228    2.7734659    12226.082    3714.0511 
 1635000    790.46374   -4276.7651            0   -4213.1098   -1087.5069    22.509851    22.538242    22.288228    2.7139627    12234.038    3706.0767 
 1636000    760.85839   -4278.8778            0   -4217.6066   -2342.1852    22.509851    22.538242    22.288228    2.8649784    12241.992    3698.1017 
 1637000    790.34878   -4274.4861            0     -4210.84   -727.70714    22.509851    22.538242    22.288228     2.531275    12249.942    3690.1258 
 1638000    790.54772    -4275.888            0    -4212.226     -1104.55    22.509851    22.538242    22.288228    2.2070163    12257.905    3682.1535 
 1639000    769.82817   -4279.5929            0   -4217.5993   -1864.5904    22.509851    22.538242    22.288228    2.5962747    12265.868    3674.1813 
 1640000    830.03454   -4276.6881            0   -4209.8462   -1527.6664    22.509851    22.538242    22.288228    2.5438326    12273.822    3666.2066 
 1641000    804.64063   -4276.9475            0   -4212.1505   -354.79339    22.509851    22.538242    22.288228    2.2561659    12281.778    3658.2325 
 1642000    742.23622   -4277.1423            0   -4217.3707   -2021.4878    22.509851    22.538242    22.288228    2.5682134    12289.742    3650.2605 
 1643000    803.11897    -4273.614            0   -4208.9396   -387.11051    22.509851    22.538242    22.288228    3.5564777     12297.69    3642.2842 
 1644000    776.71467   -4275.8956            0   -4213.3475   -125.02657    22.509851    22.538242    22.288228    2.6521572    12305.637    3634.3073 
 1645000    773.78377   -4275.5618            0   -4213.2497    -1475.849    22.509851    22.538242    22.288228    2.8965076    12313.582      3626.33 
 1646000    817.49002   -4274.4603            0   -4208.6286   -436.78154    22.509851    22.538242    22.288228    2.6770251     12321.56    3618.3623 
 1647000    739.68508   -4273.8612            0    -4214.295   -474.60664    22.509851    22.538242    22.288228    3.0501659     12329.51    3610.3865 
 1648000    808.41808   -4273.2556            0   -4208.1544    -1869.373    22.509851    22.538242    22.288228    3.0506128    12337.468    3602.4133 
 1649000    839.22229   -4276.3663            0   -4208.7845   -651.95944    22.509851    22.538242    22.288228    2.6787562    12345.422    3594.4386 
 1650000    826.68525   -4279.9873            0   -4213.4151   -1760.3394    22.509851    22.538242    22.288228    2.5677173    12353.382    3586.4656 
 1651000     805.9112   -4272.2964            0   -4207.3971    878.04714    22.509851    22.538242    22.288228    3.8131031    12361.337    3578.4914 
 1652000    798.78076   -4273.3636            0   -4209.0385   -415.88559    22.509851    22.538242    22.288228     2.327802    12369.292    3570.5173 
 1653000    819.79555   -4278.3145            0   -4212.2971   -117.22876    22.509851    22.538242    22.288228    2.5982174    12377.259    3562.5465 
 1654000    773.80183   -4274.0167            0   -4211.7032   -1040.5069    22.509851    22.538242    22.288228    3.0331161    12385.215    3554.5727 
 1655000    826.90992   -4274.3712            0   -4207.7809   -44.959082    22.509851    22.538242    22.288228    2.9401975    12393.177    3546.6006 
 1656000    765.89716   -4276.4744            0   -4214.7974   -1245.5182    22.509851    22.538242    22.288228    2.6385605    12401.126    3538.6246 
 1657000    808.24581   -4276.9692            0   -4211.8819   -1358.4521    22.509851    22.538242    22.288228    2.6031966    12409.073    3530.6483 
 1658000    806.01537   -4275.8349            0   -4210.9272    147.82959    22.509851    22.538242    22.288228    4.1066918    12417.017    3522.6711 
 1659000    795.76458   -4276.2314            0   -4212.1492   -315.79078    22.509851    22.538242    22.288228     2.707992    12424.966    3514.6953 
 1660000    764.15963   -4274.7169            0   -4213.1798    -94.60169    22.509851    22.538242    22.288228    3.9461163    12432.928    3506.7232 
 1661000    844.34909   -4277.8403            0   -4209.8457    -1132.051    22.509851    22.538242    22.288228     2.561775    12440.885      3498.75 
 1662000    781.87752   -4273.9404            0   -4210.9765   -99.369262    22.509851    22.538242    22.288228    4.2198154    12448.842    3490.7765 
 1663000    788.93993   -4278.4673            0   -4214.9347   -1570.4722    22.509851    22.538242    22.288228    2.6428739    12456.805    3482.8046 
 1664000    818.81177   -4276.2498            0   -4210.3117   -711.41146    22.509851    22.538242    22.288228    2.3968061     12464.77    3474.8337 
 1665000    804.05421   -4276.2331            0   -4211.4834   -747.60897    22.509851    22.538242    22.288228    3.0903698    12472.729    3466.8608 
 1666000    780.66514   -4276.1421            0   -4213.2758   -1645.8318    22.509851    22.538242    22.288228    2.4268609    12480.687    3458.8878 
 1667000    767.19863   -4274.5862            0   -4212.8044   -1307.9847    22.509851    22.538242    22.288228    2.9825556    12488.642    3450.9138 
 1668000    828.09095   -4274.2922            0   -4207.6068   -218.83209    22.509851    22.538242    22.288228     2.993602      12496.6    3442.9409 
 1669000    776.88889   -4278.0654            0   -4215.5032   -2749.6402    22.509851    22.538242    22.288228    2.4852573    12504.587    3434.9759 
 1670000     767.5079   -4273.3069            0   -4211.5002    904.03111    22.509851    22.538242    22.288228    2.9761874    12512.541    3427.0018 
 1671000    835.84664   -4277.1778            0   -4209.8679    -1907.183    22.509851    22.538242    22.288228    2.8201018    12520.503    3419.0298 
 1672000    744.00708   -4279.4693            0   -4219.5551   -2620.8435    22.509851    22.538242    22.288228    2.4380767    12528.465     3411.058 
 1673000     792.7294   -4276.8243            0   -4212.9865   -340.61306    22.509851    22.538242    22.288228    4.1094015    12536.425    3403.0854 
 1674000    835.45892   -4276.4396            0   -4209.1608   -1393.7822    22.509851    22.538242    22.288228    3.7686669    12544.394    3395.1154 
 1675000    782.88957   -4278.6824            0   -4215.6371   -1680.4453    22.509851    22.538242    22.288228    3.5856228    12552.336    3387.1383 
 1676000    820.68938   -4279.4335            0   -4213.3441   -1303.3909    22.509851    22.538242    22.288228    3.0684316    12560.302    3379.1676 
 1677000    782.76112   -4273.9484            0   -4210.9134   -119.03731    22.509851    22.538242    22.288228    2.5542671     12568.26    3371.1948 
 1678000    794.62039   -4276.3671            0   -4212.3771    325.49863    22.509851    22.538242    22.288228    2.3593985    12576.213    3363.2204 
 1679000    773.87774   -4277.9122            0   -4215.5925   -1174.2936    22.509851    22.538242    22.288228    2.2681647    12584.163    3355.2456 
 1680000    821.67927   -4274.4891            0   -4208.3201   -1301.8114    22.509851    22.538242    22.288228    3.1676541    12592.118    3347.2718 
 1681000    783.42084   -4275.1504            0   -4212.0623    -930.4714    22.509851    22.538242    22.288228    3.1311653    12600.099    3339.3051 
 1682000    832.66769    -4280.352            0   -4213.2981   -1888.7397    22.509851    22.538242    22.288228    2.5851984    12608.054    3331.3316 
 1683000    813.26404   -4276.4967            0   -4211.0053    464.41248    22.509851    22.538242    22.288228    3.4330884    12616.026    3323.3625 
 1684000    815.20391   -4275.0515            0   -4209.4039   -438.38736    22.509851    22.538242    22.288228    3.6221853    12623.972    3315.3866 
 1685000    801.60738   -4279.4243            0   -4214.8716   -1470.1001    22.509851    22.538242    22.288228    3.2099321    12631.931    3307.4142 
 1686000    795.87139    -4275.767            0   -4211.6762   -531.87027    22.509851    22.538242    22.288228    3.1584604    12639.876     3299.438 
 1687000    838.23916    -4276.667            0   -4209.1644   -1487.8789    22.509851    22.538242    22.288228    2.7638017    12647.844    3291.4679 
 1688000    765.96195   -4275.7403            0   -4214.0581   -963.39519    22.509851    22.538242    22.288228    2.8538514    12655.847    3283.5068 
 1689000    806.35503    -4271.291            0    -4206.356   -404.52997    22.509851    22.538242    22.288228    3.6629408    12663.799    3275.5327 
 1690000    820.05929   -4277.1453            0   -4211.1067   -293.62044    22.509851    22.538242    22.288228    4.0055842    12671.764    3267.5618 
 1691000    782.39669   -4276.2266            0   -4213.2209   -720.23521    22.509851    22.538242    22.288228    2.4993039    12679.718    3259.5881 
 1692000    844.01478   -4273.2466            0   -4205.2789   -736.36563    22.509851    22.538242    22.288228      3.34632    12687.679    3251.6162 
 1693000    795.69874   -4273.4629            0   -4209.3861   -125.74249    22.509851    22.538242    22.288228    3.3360294    12695.648    3243.6465 
 1694000    793.78658   -4276.9019            0    -4212.979   -1450.6148    22.509851    22.538242    22.288228    4.2063038    12703.621    3235.6776 
 1695000    769.37845   -4276.0148            0   -4214.0574   -811.99824    22.509851    22.538242    22.288228    3.0821745     12711.58    3227.7053 
 1696000     819.5621   -4273.8108            0   -4207.8122    513.56378    22.509851    22.538242    22.288228    2.9908535    12719.539    3219.7329 
 1697000    796.99374   -4278.8863            0   -4214.7051   -1882.6148    22.509851    22.538242    22.288228    2.7891649    12727.498    3211.7607 
 1698000    775.49807   -4275.8569            0   -4213.4068   -1911.9843    22.509851    22.538242    22.288228    2.6306405    12735.444    3203.7851 
 1699000     836.4079   -4276.8013            0   -4209.4461    114.90319    22.509851    22.538242    22.288228    3.0363973    12743.391    3195.8097 
 1700000    748.50818   -4276.9103            0   -4216.6336   -1978.6961    22.509851    22.538242    22.288228    2.4629965    12751.347    3187.8367 
 1701000    826.11434   -4277.8717            0   -4211.3455   -1335.9458    22.509851    22.538242    22.288228    2.6415097    12759.312    3179.8659 
 1702000    823.46657   -4276.5604            0   -4210.2474    71.418413    22.509851    22.538242    22.288228    3.2203563    12767.279    3171.8957 
 1703000    753.42531   -4278.9704            0   -4218.2977   -2231.4819    22.509851    22.538242    22.288228    3.3541751    12775.227    3163.9208 
 1704000    829.52261   -4280.5211            0   -4213.7204   -1573.9156    22.509851    22.538242    22.288228    2.5618648    12783.184    3155.9481 
 1705000    804.28483   -4274.7599            0   -4209.9916    975.99114    22.509851    22.538242    22.288228    3.1762875    12791.133    3147.9736 
 1706000    772.89662   -4278.6818            0   -4216.4412   -2853.8459    22.509851    22.538242    22.288228    2.5024246    12799.101    3140.0035 
 1707000    788.25576   -4276.8426            0   -4213.3651    -1453.425    22.509851    22.538242    22.288228    4.4447785    12807.045    3132.0279 
 1708000    789.12977   -4274.2807            0   -4210.7328     637.0139    22.509851    22.538242    22.288228    3.2721895    12815.011    3124.0573 
 1709000    826.44166   -4280.4432            0   -4213.8907   -1923.0508    22.509851    22.538242    22.288228    2.3804476    12822.978    3116.0873 
 1710000    768.02212   -4279.3405            0   -4217.4924   -2284.2623    22.509851    22.538242    22.288228    2.8136018    12830.937    3108.1153 
 1711000    819.31296   -4276.9149            0   -4210.9364   -1000.1314    22.509851    22.538242    22.288228    3.1884195    12838.898    3100.1436 
 1712000    804.42659   -4276.9355            0   -4212.1557   -1189.0769    22.509851    22.538242    22.288228     2.723333    12846.847    3092.1692 
 1713000    787.16168   -4279.6449            0   -4216.2555   -1611.1184    22.509851    22.538242    22.288228    2.8180459    12854.807    3084.1973 
 1714000     840.8544   -4276.6991            0   -4208.9858   -864.64257    22.509851    22.538242    22.288228    2.4514818    12862.757    3076.2231 
 1715000    810.59279   -4277.0271            0   -4211.7508   -2021.9913    22.509851    22.538242    22.288228    3.4824515    12870.719     3068.252 
 1716000    763.87733   -4276.9245            0   -4215.4102   -1585.4867    22.509851    22.538242    22.288228    2.6920754    12878.657     3060.275 
 1717000    832.08548   -4274.2035            0   -4207.1964   -859.45889    22.509851    22.538242    22.288228    2.9153011    12886.616    3052.3029 
 1718000    823.23802   -4279.5364            0   -4213.2418   -2280.7819    22.509851    22.538242    22.288228     3.507868    12894.569    3044.3296 
 1719000    773.47475   -4274.9398            0   -4212.6526    48.221866    22.509851    22.538242    22.288228    3.0364269    12902.541    3036.3609 
 1720000    829.53233   -4272.7485            0    -4205.947   -156.53127    22.509851    22.538242    22.288228    2.4868777    12910.502    3028.3893 
 1721000    803.27424   -4276.7719            0   -4212.0849   -958.16855    22.509851    22.538242    22.288228    3.2409799    12918.452    3020.4154 
 1722000    764.75782    -4274.578            0   -4212.9928   -515.01315    22.509851    22.538242    22.288228    2.6237349    12926.401    3012.4412 
 1723000      813.543   -4271.3674            0   -4205.8535    885.57396    22.509851    22.538242    22.288228    3.4684572    12934.367    3004.4709 
 1724000    813.10559   -4277.6174            0   -4212.1388   -562.89518    22.509851    22.538242    22.288228    3.0503785    12942.324    2996.4987 
 1725000    802.11211   -4277.2296            0   -4212.6363   -798.92552    22.509851    22.538242    22.288228    2.6998222    12950.278    2988.5256 
 1726000    850.71531   -4274.2482            0   -4205.7409    425.64956    22.509851    22.538242    22.288228      2.90845    12958.236    2980.5536 
 1727000    795.45134     -4276.72            0   -4212.6631   -826.19335    22.509851    22.538242    22.288228    3.1145174    12966.201    2972.5834 
 1728000    814.64059   -4277.8893            0    -4212.287   -1089.5708    22.509851    22.538242    22.288228     2.423472    12974.158    2964.6111 
 1729000    831.48173   -4273.9526            0   -4206.9941   -472.88907    22.509851    22.538242    22.288228    2.7924903    12982.112    2956.6383 
 1730000    795.87754    -4277.062            0   -4212.9707   -1871.5015    22.509851    22.538242    22.288228    2.6924842     12990.06    2948.6638 
 1731000    790.41626    -4276.839            0   -4213.1876    -1520.659    22.509851    22.538242    22.288228    2.9848436     12998.01    2940.6901 
 1732000    853.13297   -4275.9371            0   -4207.2351    390.02258    22.509851    22.538242    22.288228    2.9093389    13005.965    2932.7176 
 1733000    803.97135    -4276.164            0   -4211.4209   -691.78238    22.509851    22.538242    22.288228     3.001606    13013.917    2924.7443 
 1734000    787.45697   -4275.3752            0    -4211.962   -208.75054    22.509851    22.538242    22.288228    3.4324032    13021.864      2916.77 
 1735000    809.71076   -4275.3594            0   -4210.1541   -1411.3056    22.509851    22.538242    22.288228    3.0083847    13029.831    2908.8001 
 1736000    825.81123   -4275.9481            0   -4209.4463   -2188.7034    22.509851    22.538242    22.288228    2.4668053    13037.782    2900.8268 
 1737000    750.16339   -4275.9843            0   -4215.5743   -1303.7763    22.509851    22.538242    22.288228    2.2713522    13045.735    2892.8539 
 1738000    865.25088   -4277.8598            0    -4208.182   -924.46204    22.509851    22.538242    22.288228    2.8564538      13053.7    2884.8835 
 1739000    806.89646   -4275.8063            0   -4210.8277   -29.669345    22.509851    22.538242    22.288228    2.9377008    13061.648    2876.9097 
 1740000    810.98817    -4279.577            0   -4214.2689   -2026.5155    22.509851    22.538242    22.288228    2.8604041    13069.589    2868.9342 
 1741000    883.15663   -4277.4633            0   -4206.3435   -169.97559    22.509851    22.538242    22.288228    2.8994505    13077.541    2860.9612 
 1742000    792.85963   -4275.9773            0    -4212.129   -873.09737    22.509851    22.538242    22.288228    2.9156489    13085.516    2852.9931 
 1743000    790.61225   -4276.3308            0   -4212.6636    -1728.554    22.509851    22.538242    22.288228    2.5415838    13093.477    2845.0222 
 1744000    839.31216   -4273.2206            0   -4205.6316    10.438572    22.509851    22.538242    22.288228    2.9694448    13101.428    2837.0488 
 1745000    842.05492   -4276.7703            0   -4208.9604   -511.74279    22.509851    22.538242    22.288228    2.4403034     13109.38    2829.0759 
 1746000    820.85689   -4278.8194            0   -4212.7166   -1932.5296    22.509851    22.538242    22.288228    3.3399847    13117.327    2821.1018 
 1747000    798.97716   -4277.8023            0   -4213.4614   -1654.3343    22.509851    22.538242    22.288228       3.8594    13125.277    2813.1286 
 1748000    836.43543   -4275.2165            0   -4207.8591   -37.612918    22.509851    22.538242    22.288228    2.9440236    13133.231    2805.1561 
 1749000    766.35233   -4276.5007            0   -4214.7871   -768.33104    22.509851    22.538242    22.288228    3.6291351    13141.178    2797.1821 
 1750000    805.56204   -4277.5415            0   -4212.6703   -2157.0739    22.509851    22.538242    22.288228    2.4018832    13149.142     2789.212 
 1751000    829.76448   -4276.9055            0   -4210.0853   -1982.5866    22.509851    22.538242    22.288228    2.8099842    13157.091    2781.2385 
 1752000    794.17966   -4275.4651            0   -4211.5105   -1105.1745    22.509851    22.538242    22.288228    4.2253008     13165.04     2773.265 
 1753000    796.40254   -4276.8406            0    -4212.707   -900.44248    22.509851    22.538242    22.288228    2.8863396    13172.994    2765.2928 
 1754000    755.16142    -4275.649            0   -4214.8366   -976.43531    22.509851    22.538242    22.288228    2.6529759    13180.946      2757.32 
 1755000    815.97863   -4275.2308            0   -4209.5208    691.52158    22.509851    22.538242    22.288228     2.878707    13188.905    2749.3487 
 1756000    778.55221    -4273.334            0   -4210.6379    567.91472    22.509851    22.538242    22.288228    3.7459483    13196.862    2741.3771 
 1757000    765.97123    -4276.533            0     -4214.85   -1120.7004    22.509851    22.538242    22.288228    2.5705722    13204.823    2733.4064 
 1758000    820.66859   -4275.6606            0   -4209.5729   -598.32317    22.509851    22.538242    22.288228    2.8991168    13212.785    2725.4357 
 1759000    772.82594   -4277.1102            0   -4214.8753   -1646.8951    22.509851    22.538242    22.288228    2.6679688    13220.738    2717.4632 
 1760000    790.35321    -4278.103            0   -4214.4566    344.11905    22.509851    22.538242    22.288228    2.6855688    13228.692    2709.4912 
 1761000    797.54917   -4274.5604            0   -4210.3345    -115.5252    22.509851    22.538242    22.288228    2.8875281    13236.648    2701.5195 
 1762000    790.60722   -4278.0592            0   -4214.3924   -1770.4261    22.509851    22.538242    22.288228    2.8040161    13244.601    2693.5469 
 1763000    768.39549   -4278.5734            0   -4216.6952   -1909.5149    22.509851    22.538242    22.288228    3.0344894    13252.552    2685.5742 
 1764000    813.98684   -4276.8959            0   -4211.3463   -1262.8271    22.509851    22.538242    22.288228    3.2158442    13260.497    2677.6004 
 1765000    827.22025   -4276.6141            0   -4209.9988   -2509.7226    22.509851    22.538242    22.288228    2.5753922    13268.462    2669.6304 
 1766000    779.65797   -4278.9112            0    -4216.126   -1870.3328    22.509851    22.538242    22.288228    2.6388863    13276.427    2661.6607 
 1767000    793.49083   -4273.5306            0   -4209.6315   -712.47165    22.509851    22.538242    22.288228    3.5357133    13284.389    2653.6902 
 1768000    808.83062   -4275.6844            0     -4210.55    94.594769    22.509851    22.538242    22.288228    2.3783211    13292.358    2645.7212 
 1769000    781.65813   -4278.8168            0   -4215.8706   -1264.4957    22.509851    22.538242    22.288228    2.4000732    13300.317    2637.7502 
 1770000    791.92959   -4281.3706            0   -4217.5972    -2096.672    22.509851    22.538242    22.288228    2.7577294    13308.273    2629.7784 
 1771000    804.08245   -4275.8882            0   -4211.1362   -769.45554    22.509851    22.538242    22.288228    3.3902677    13316.234    2621.8079 
 1772000    792.37304   -4274.6539            0   -4210.8448   -512.58899    22.509851    22.538242    22.288228    2.6991921     13324.17    2613.8324 
 1773000    781.50644   -4279.6391            0   -4216.7051   -2031.9266    22.509851    22.538242    22.288228    2.6017021    13332.126    2605.8609 
 1774000    806.46448   -4273.9085            0   -4208.9647   -1370.1151    22.509851    22.538242    22.288228    3.5554881    13340.083    2597.8896 
 1775000    799.89649    -4277.033            0   -4212.6181    -1900.105    22.509851    22.538242    22.288228    2.3036967    13348.041    2589.9184 
 1776000    804.47408   -4279.3827            0   -4214.5991   -1583.7981    22.509851    22.538242    22.288228    3.3401501    13355.992     2581.946 
 1777000    814.27165   -4273.1342            0   -4207.5616    111.50211    22.509851    22.538242    22.288228    2.8990615    13363.947    2573.9743 
 1778000     787.5378   -4277.2038            0   -4213.7841   -1228.1625    22.509851    22.538242    22.288228    3.1506841    13371.906    2566.0035 
 1779000     801.0637   -4277.1119            0   -4212.6029   -1158.6003    22.509851    22.538242    22.288228    2.8454471    13379.861    2558.0318 
 1780000    836.21614    -4278.718            0   -4211.3783   -1108.6165    22.509851    22.538242    22.288228    2.6349357     13387.81     2550.059 
 1781000    775.38243   -4275.3434            0   -4212.9026   -336.46444    22.509851    22.538242    22.288228    2.9527555    13395.776    2542.0896 
 1782000    811.62435   -4281.0729            0   -4215.7135   -1633.3353    22.509851    22.538242    22.288228    2.9043045    13403.733    2534.1184 
 1783000    808.75465   -4274.2736            0   -4209.1453    464.55826    22.509851    22.538242    22.288228    3.1174049    13411.701    2526.1492 
 1784000    806.69968   -4278.7905            0   -4213.8277   -2226.2123    22.509851    22.538242    22.288228    3.2863511    13419.658    2518.1782 
 1785000    774.66067   -4279.3074            0   -4216.9247   -1131.1838    22.509851    22.538242    22.288228     2.566259    13427.601    2510.2044 
 1786000    834.02238   -4278.9349            0   -4211.7718   -1526.5339    22.509851    22.538242    22.288228    2.6178636    13435.559    2502.2333 
 1787000    837.49662   -4276.8961            0   -4209.4533   -306.00864    22.509851    22.538242    22.288228     3.060589    13443.513    2494.2618 
 1788000    772.13498   -4278.7112            0   -4216.5319   -954.90486    22.509851    22.538242    22.288228    2.4593449    13451.457    2486.2883 
 1789000    780.56953    -4274.685            0   -4211.8264   -562.62433    22.509851    22.538242    22.288228    3.1040285    13459.437    2478.3214 
 1790000    799.73764   -4275.4937            0   -4211.0915   -558.39836    22.509851    22.538242    22.288228     2.523158    13467.413    2470.3538 
 1791000    774.51127    -4278.428            0   -4216.0574   -1433.8593    22.509851    22.538242    22.288228    2.6392425    13475.381    2462.3848 
 1792000    800.05221   -4277.2341            0   -4212.8067   -1163.6309    22.509851    22.538242    22.288228    2.3578542    13483.328    2454.4119 
 1793000    827.36445   -4277.0391            0   -4210.4122   -118.07899    22.509851    22.538242    22.288228      2.68838    13491.297    2446.4432 
 1794000     750.6963   -4276.4078            0   -4215.9549   -1737.8202    22.509851    22.538242    22.288228    2.8997253    13499.239    2438.4694 
 1795000    754.17108   -4275.4828            0   -4214.7501    113.48403    22.509851    22.538242    22.288228     3.284772    13507.188    2430.4969 
 1796000    820.49002   -4275.5722            0   -4209.4989    193.82525    22.509851    22.538242    22.288228    2.3564736    13515.142    2422.5255 
 1797000    800.44351   -4279.4088            0   -4214.9498   -1551.2966    22.509851    22.538242    22.288228    3.2670297    13523.112    2414.5568 
 1798000    801.27109   -4275.8473            0   -4211.3217   -1138.2159    22.509851    22.538242    22.288228    3.2329168    13531.075     2406.587 
 1799000    815.97983   -4275.3015            0   -4209.5914   -470.13964    22.509851    22.538242    22.288228    2.7101393    13539.034    2398.6164 
 1800000    755.45965   -4275.4296            0   -4214.5932   -1203.0094    22.509851    22.538242    22.288228    2.8341346    13546.999    2390.6468 
 1801000     784.6357    -4274.505            0    -4211.319   -1146.9451    22.509851    22.538242    22.288228    3.1894255    13554.959    2382.6765 
 1802000    800.46311   -4275.8369            0   -4211.3764    -1152.222    22.509851    22.538242    22.288228    2.9893015    13562.922    2374.7066 
 1803000    798.64127   -4276.7485            0   -4212.4346   -1134.4262    22.509851    22.538242    22.288228    3.0366529    13570.875    2366.7351 
 1804000    776.44015    -4275.747            0    -4213.221   -1261.3271    22.509851    22.538242    22.288228    2.7257786    13578.842     2358.766 
 1805000    822.54045   -4274.5945            0   -4208.3561   -355.83931    22.509851    22.538242    22.288228    2.6569022    13586.816    2350.7981 
 1806000    787.17345   -4277.1268            0   -4213.7364   -1452.4354    22.509851    22.538242    22.288228    2.7419403    13594.766     2342.826 
 1807000    772.66539   -4275.5557            0   -4213.3337   -1497.9437    22.509851    22.538242    22.288228    2.8436288    13602.732    2334.8567 
 1808000    808.93518   -4274.5361            0   -4209.3933   -370.61042    22.509851    22.538242    22.288228    3.4245221    13610.687    2326.8856 
 1809000    784.19796   -4274.4413            0   -4211.2906   -1157.4154    22.509851    22.538242    22.288228    3.0445822    13618.641    2318.9143 
 1810000    788.48257   -4275.2619            0   -4211.7661   -748.17836    22.509851    22.538242    22.288228    2.7299703    13626.609    2310.9454 
 1811000    786.43238   -4275.3248            0   -4211.9941   -188.88634    22.509851    22.538242    22.288228    2.8039664    13634.565    2302.9744 
 1812000    796.72506   -4275.5051            0   -4211.3456   -966.13722    22.509851    22.538242    22.288228    3.0500186    13642.526    2295.0044 
 1813000    844.66946    -4276.207            0   -4208.1866   -372.66701    22.509851    22.538242    22.288228    2.8329855    13650.478    2287.0328 
 1814000    798.49044   -4278.5953            0   -4214.2936   -1804.1128    22.509851    22.538242    22.288228    2.3331291     13658.43    2279.0613 
 1815000     808.5649   -4277.8602            0   -4212.7472    -1115.913    22.509851    22.538242    22.288228     2.460149     13666.38    2271.0893 
 1816000    836.47384   -4276.2754            0   -4208.9149   -34.629546    22.509851    22.538242    22.288228    2.5238737    13674.334    2263.1182 
 1817000    785.73155   -4276.2757            0   -4213.0014   -1481.7328    22.509851    22.538242    22.288228    3.0721765    13682.297    2255.1485 
 1818000    790.17362   -4276.1517            0   -4212.5198   -722.92616    22.509851    22.538242    22.288228    2.7400851    13690.281    2247.1823 
 1819000    837.00429   -4275.0574            0   -4207.6542    411.37566    22.509851    22.538242    22.288228     3.462725    13698.252     2239.214 
 1820000    802.57317   -4278.3756            0   -4213.7452   -1745.4951    22.509851    22.538242    22.288228    2.6610951    13706.204    2231.2425 
 1821000    772.74315   -4274.2256            0   -4211.9973    -1343.516    22.509851    22.538242    22.288228    3.9531966    13714.148    2223.2698 
 1822000    836.77472   -4275.3077            0    -4207.923   -600.80178    22.509851    22.538242    22.288228      2.17434    13722.099    2215.2983 
 1823000    809.59381   -4274.8317            0   -4209.6359   -508.89868    22.509851    22.538242    22.288228    2.6858878    13730.063    2207.3288 
 1824000    813.10934   -4279.5247            0   -4214.0458   -819.80569    22.509851    22.538242    22.288228    3.7111665    13738.017    2199.3577 
 1825000    795.50144   -4270.6853            0   -4206.6243    504.84321    22.509851    22.538242    22.288228    2.3709322    13745.968    2191.3862 
 1826000    783.38627   -4272.3733            0   -4209.2879    -562.9218    22.509851    22.538242    22.288228    2.5785471    13753.924    2183.4155 
 1827000     782.4113   -4275.5789            0   -4212.5721   -155.32728    22.509851    22.538242    22.288228    2.4379602    13761.875    2175.4441 
 1828000    772.19445   -4277.4221            0    -4215.238   -1409.1045    22.509851    22.538242    22.288228    2.7975424    13769.829    2167.4731 
 1829000    780.98538   -4274.0086            0   -4211.1166   -64.590729    22.509851    22.538242    22.288228    3.3209129    13777.787    2159.5028 
 1830000    797.23395    -4273.762            0   -4209.5615    108.93436    22.509851    22.538242    22.288228    3.8997368     13785.74    2151.5317 
 1831000     770.7109   -4278.0161            0   -4215.9515   -999.19168    22.509851    22.538242    22.288228    2.9747812    13793.702    2143.5619 
 1832000    799.05954   -4275.2449            0   -4210.8974   -1046.0546    22.509851    22.538242    22.288228    3.1245525    13801.654    2135.5909 
 1833000    818.01494   -4276.7974            0   -4210.9234   -521.34563    22.509851    22.538242    22.288228    2.6170574    13809.614    2127.6208 
 1834000    761.79621   -4277.9517            0    -4216.605   -783.96163    22.509851    22.538242    22.288228    2.7453254    13817.565    2119.6495 
 1835000    790.23637   -4274.2484            0   -4210.6114    423.26216    22.509851    22.538242    22.288228    3.3421883    13825.522    2111.6792 
 1836000    809.09906   -4277.5626            0   -4212.4066   -393.46145    22.509851    22.538242    22.288228    3.4772074    13833.468     2103.707 
 1837000    767.58927    -4280.775            0   -4218.9617   -2300.6083    22.509851    22.538242    22.288228    2.9022952    13841.423    2095.7364 
 1838000     803.4586    -4277.653            0   -4212.9512    -1422.943    22.509851    22.538242    22.288228    2.6399285    13849.376    2087.7655 
 1839000    806.87714   -4274.4652            0   -4209.4881    383.71815    22.509851    22.538242    22.288228    3.9673666     13857.33    2079.7948 
 1840000    772.63013   -4277.7651            0   -4215.5459   -796.02246    22.509851    22.538242    22.288228    2.4307381    13865.286    2071.8243 
 1841000    817.69687   -4278.2424            0    -4212.394   -1933.2876    22.509851    22.538242    22.288228    2.5688698     13873.25    2063.8551 
 1842000    828.51516   -4277.0497            0   -4210.3301   -260.82149    22.509851    22.538242    22.288228    3.5769783    13881.203    2055.8842 
 1843000    780.31199   -4277.9677            0   -4215.1299   -483.96866    22.509851    22.538242    22.288228    2.5184339    13889.255    2047.9281 
 1844000    769.95123   -4279.3715            0    -4217.368   -2336.0039    22.509851    22.538242    22.288228    2.9852933    13897.227    2039.9599 
 1845000    795.59695   -4273.9172            0   -4209.8486   -902.75248    22.509851    22.538242    22.288228    2.6769642    13905.225    2031.9956 
 1846000    814.79651   -4278.5893            0   -4212.9745    24.304501    22.509851    22.538242    22.288228    3.5438508    13913.209    2024.0293 
 1847000    760.18904   -4276.4141            0   -4215.1968   -766.67856    22.509851    22.538242    22.288228    3.0420216    13921.243    2016.0701 
 1848000    801.38819   -4272.5752            0   -4208.0401    715.49968    22.509851    22.538242    22.288228    2.6341142    13929.266    2008.1093 
 1849000    786.40446   -4277.4171            0   -4214.0887    -874.6835    22.509851    22.538242    22.288228    2.5315695    13937.231    2000.1401 
 1850000    797.62113   -4277.4697            0    -4213.238   -897.23262    22.509851    22.538242    22.288228    3.4735095    13945.182    1992.1689 
 1851000    806.39822   -4276.2634            0   -4211.3249   -79.472623    22.509851    22.538242    22.288228    3.5885523    13953.156    1984.2009 
 1852000    819.90731   -4273.2512            0   -4207.2248   -640.71248    22.509851    22.538242    22.288228    2.7014248    13961.116    1976.2311 
 1853000    824.54643   -4278.5131            0   -4212.1132   -1218.1963    22.509851    22.538242    22.288228    3.2668698    13969.076    1968.2611 
 1854000    770.08182   -4275.5575            0   -4213.5435   -1422.0223    22.509851    22.538242    22.288228    2.5130729    13977.027      1960.29 
 1855000    869.68397   -4275.6208            0    -4205.586   -1034.6584    22.509851    22.538242    22.288228    2.6771306    13984.987    1952.3201 
 1856000    785.22267   -4276.8377            0   -4213.6044    67.874236    22.509851    22.538242    22.288228    2.7300974    13992.941    1944.3494 
 1857000    781.90435   -4275.0128            0   -4212.0467   -229.24002    22.509851    22.538242    22.288228    2.9572312    14000.908    1936.3806 
 1858000     820.2071   -4274.4714            0   -4208.4209     1144.301    22.509851    22.538242    22.288228    2.7140321    14008.881    1928.4125 
 1859000    800.90685   -4280.6029            0   -4216.1066    -2347.115    22.509851    22.538242    22.288228    2.3433211    14016.843    1920.4429 
 1860000    792.16698   -4274.8309            0   -4211.0384   -1536.6781    22.509851    22.538242    22.288228    3.3174801    14024.796    1912.4721 
 1861000    800.07656   -4275.4027            0   -4210.9733    -285.8391    22.509851    22.538242    22.288228    2.8367049    14032.755    1904.5023 
 1862000     811.7738   -4277.2076            0   -4211.8362   -1330.3437    22.509851    22.538242    22.288228    2.5022556    14040.718    1896.5329 
 1863000    823.28484   -4277.1757            0   -4210.8774   -260.48347    22.509851    22.538242    22.288228    2.6041566     14048.66    1888.5606 
 1864000     818.9696   -4273.0422            0   -4207.0913    -506.5829    22.509851    22.538242    22.288228    3.9409416    14056.626    1880.5917 
 1865000    780.99633   -4277.4091            0   -4214.5162   -1428.5699    22.509851    22.538242    22.288228    2.9643767    14064.581    1872.6213 
 1866000    812.68425   -4277.0541            0   -4211.6093   -1607.0753    22.509851    22.538242    22.288228    3.1664954    14072.536    1864.6509 
 1867000    903.48246   -4276.0738            0   -4203.3172   -464.07511    22.509851    22.538242    22.288228    3.3110148     14080.49    1856.6804 
 1868000    838.65635   -4278.1474            0   -4210.6112   -840.52488    22.509851    22.538242    22.288228    2.3256152    14088.533    1848.7215 
 1869000    778.51598   -4276.7935            0   -4214.1003   -1369.3242    22.509851    22.538242    22.288228    3.9645285    14096.558    1840.7603 
 1870000    772.60134   -4270.3076            0   -4208.0907    1143.3177    22.509851    22.538242    22.288228    3.2032453    14104.512    1832.7897 
 1871000    783.44244   -4277.5815            0   -4214.4916   -1881.2742    22.509851    22.538242    22.288228    3.5093007    14112.465     1824.819 
 1872000     766.7685   -4274.3641            0   -4212.6169   -444.12392    22.509851    22.538242    22.288228    2.8576878    14120.414    1816.8478 
 1873000    796.71629   -4273.5194            0   -4209.3606     14.76807    22.509851    22.538242    22.288228    3.1141901    14128.367    1808.8773 
 1874000    788.36695   -4281.1359            0   -4217.6495   -2318.7605    22.509851    22.538242    22.288228    2.7409855    14136.322    1800.9069 
 1875000    778.21901   -4274.1982            0   -4211.5289   -727.16325    22.509851    22.538242    22.288228    3.1047473    14144.274    1792.9362 
 1876000    835.73373   -4278.0333            0   -4210.7324    57.772058    22.509851    22.538242    22.288228    2.7875581    14152.243    1784.9676 
 1877000    771.45666   -4280.3543            0   -4218.2296   -2368.2565    22.509851    22.538242    22.288228    2.1678183    14160.196    1776.9971 
 1878000    823.41638   -4278.6612            0   -4212.3522    -734.1097    22.509851    22.538242    22.288228    2.6717587    14168.153     1769.027 
 1879000    804.86129   -4275.2504            0   -4210.4356   -84.137373    22.509851    22.538242    22.288228    3.0106047    14176.107    1761.0566 
 1880000    831.23427   -4280.2728            0   -4213.3343   -1175.9471    22.509851    22.538242    22.288228      2.46127    14184.062    1753.0863 
 1881000    811.80789   -4279.8688            0   -4214.4947   -1590.8596    22.509851    22.538242    22.288228    2.7883678    14192.015    1745.1158 
 1882000    859.51972   -4277.8577            0   -4208.6413    804.97683    22.509851    22.538242    22.288228    2.6908672    14199.962    1737.1446 
 1883000    829.49884   -4279.4079            0   -4212.6092   -1480.4414    22.509851    22.538242    22.288228    2.3514014    14207.926    1729.1755 
 1884000    776.20136   -4274.3977            0   -4211.8909   -366.31982    22.509851    22.538242    22.288228    2.9899712    14215.888    1721.2062 
 1885000    854.14625   -4271.3974            0   -4202.6138    597.65618    22.509851    22.538242    22.288228    2.7134064    14223.847    1713.2365 
 1886000    821.99549   -4278.4032            0   -4212.2087    -1722.596    22.509851    22.538242    22.288228    2.5550419    14231.805    1705.2666 
 1887000    776.74497   -4276.3328            0   -4213.7823   -1896.7783    22.509851    22.538242    22.288228    2.7474075    14239.753    1697.2956 
 1888000    845.02667   -4275.0924            0   -4207.0431   -248.74607    22.509851    22.538242    22.288228     3.272264    14247.722    1689.3272 
 1889000     812.2923   -4279.6839            0   -4214.2707   -434.11587    22.509851    22.538242    22.288228    2.5325848    14255.675    1681.3568 
 1890000    821.09818   -4278.1666            0   -4212.0443   -1377.8281    22.509851    22.538242    22.288228    2.6278671    14263.634    1673.3872 
 1891000    829.53685    -4275.343            0   -4208.5412   -333.49894    22.509851    22.538242    22.288228    3.2262346    14271.592    1665.4175 
 1892000    786.70718   -4279.3869            0   -4216.0341   -1878.7977    22.509851    22.538242    22.288228    3.0299932    14279.546    1657.4473 
 1893000    795.62994   -4275.3849            0   -4211.3136   -768.64852    22.509851    22.538242    22.288228    2.6542157    14287.499     1649.477 
 1894000    809.08611   -4275.5865            0   -4210.4315   -1204.9713    22.509851    22.538242    22.288228    3.0327198     14295.47    1641.5089 
 1895000     788.6301   -4277.1711            0   -4213.6635   -528.79872    22.509851    22.538242    22.288228    2.2781993    14303.429    1633.5393 
 1896000    758.74542   -4279.7196            0   -4218.6186   -2920.6731    22.509851    22.538242    22.288228    2.4965297    14311.398    1625.5708 
 1897000    803.40405   -4275.8928            0   -4211.1954   -1365.6162    22.509851    22.538242    22.288228    2.8355306    14319.363     1617.602 
 1898000    834.91141   -4278.3091            0   -4211.0745   -1222.1259    22.509851    22.538242    22.288228    2.5000621    14327.318     1609.632 
 1899000    751.20316   -4276.8573            0   -4216.3636   -1180.6354    22.509851    22.538242    22.288228    3.4433237     14335.28    1601.6627 
 1900000    841.41175    -4277.606            0   -4209.8479   -983.29203    22.509851    22.538242    22.288228    3.1003099    14343.239    1593.6932 
 1901000    785.10276   -4273.9769            0   -4210.7533     44.43931    22.509851    22.538242    22.288228    3.0801846    14351.192     1585.723 
 1902000    769.07958   -4278.0539            0   -4216.1207   -1411.9699    22.509851    22.538242    22.288228    2.6435005    14359.149    1577.7533 
 1903000    809.52349   -4276.1309            0   -4210.9407   -960.91787    22.509851    22.538242    22.288228    2.5838744    14367.109     1569.784 
 1904000    814.90285   -4275.3575            0   -4209.7341    -631.3638    22.509851    22.538242    22.288228    3.2185581    14375.061    1561.8138 
 1905000    778.00311   -4278.6231            0   -4215.9712   -2327.0091    22.509851    22.538242    22.288228    3.0023323    14383.024    1553.8447 
 1906000    782.98137   -4270.3548            0   -4207.3021    1174.0839    22.509851    22.538242    22.288228    2.9996242    14390.982    1545.8751 
 1907000    798.95777   -4276.7941            0   -4212.4548   -2194.2492    22.509851    22.538242    22.288228    3.1916146    14398.952    1537.9069 
 1908000    812.49178   -4279.1478            0   -4213.7186   -710.17846    22.509851    22.538242    22.288228    2.3574089    14406.918    1529.9382 
 1909000    828.52353   -4273.3243            0    -4206.604    574.35707    22.509851    22.538242    22.288228    2.7779307    14414.871    1521.9681 
 1910000    783.49792   -4274.9648            0   -4211.8705   -591.51573    22.509851    22.538242    22.288228    3.0962599     14422.83    1513.9988 
 1911000     775.0262   -4275.2291            0    -4212.817   -316.54969    22.509851    22.538242    22.288228    2.5272991    14430.779    1506.0283 
 1912000    860.19824   -4274.9453            0   -4205.6744    343.87849    22.509851    22.538242    22.288228    3.4794787    14438.737    1498.0588 
 1913000    782.32595   -4274.2873            0   -4211.2873   -89.792314    22.509851    22.538242    22.288228    2.8451471    14446.682     1490.088 
 1914000    786.83768   -4275.6715            0   -4212.3082    -1901.291    22.509851    22.538242    22.288228     3.260235    14454.666    1482.1212 
 1915000    831.16947   -4273.3068            0   -4206.3735   -1370.6873    22.509851    22.538242    22.288228    3.0015079    14462.635    1474.1529 
 1916000    764.73384   -4273.5217            0   -4211.9384   -700.81749    22.509851    22.538242    22.288228    2.6675728    14470.628    1466.1869 
 1917000    797.36331   -4277.1295            0   -4212.9186   -859.57151    22.509851    22.538242    22.288228    2.7026862    14478.575    1458.2165 
 1918000    832.10013   -4273.5357            0   -4206.5275    -228.4149    22.509851    22.538242    22.288228    2.9112315    14486.535    1450.2472 
 1919000    776.75634   -4276.7768            0   -4214.2254    164.34297    22.509851    22.538242    22.288228    2.3640352    14494.486    1442.2771 
 1920000    768.79723   -4274.0991            0   -4212.1885   -699.36484    22.509851    22.538242    22.288228    3.1338678    14502.443    1434.3076 
 1921000    826.57289   -4275.0265            0   -4208.4633    666.65461    22.509851    22.538242    22.288228    2.7014816      14510.4    1426.3381 
 1922000    746.87102   -4276.9867            0   -4216.8419   -987.72722    22.509851    22.538242    22.288228    3.9442196    14518.361    1418.3689 
 1923000    814.83648   -4277.1327            0   -4211.5147    -2381.595    22.509851    22.538242    22.288228    2.6666339    14526.318    1410.3995 
 1924000    815.62169   -4275.4753            0   -4209.7941   -759.91392    22.509851    22.538242    22.288228    2.5464346    14534.285     1402.431 
 1925000    743.26836   -4276.9206            0   -4217.0659   -1146.8509    22.509851    22.538242    22.288228    2.7058262    14542.245    1394.4618 
 1926000    799.52738    -4276.042            0   -4211.6568   -1404.9687    22.509851    22.538242    22.288228    2.5826998    14550.205    1386.4927 
 1927000    829.13028    -4277.667            0    -4210.898   -1147.5375    22.509851    22.538242    22.288228    2.4551948    14558.157    1378.5228 
 1928000    750.20628   -4278.9451            0   -4218.5317   -1665.4577    22.509851    22.538242    22.288228     2.842625    14566.118    1370.5538 
 1929000    859.39746   -4281.8423            0   -4212.6358   -1426.4877    22.509851    22.538242    22.288228    2.4181562    14574.069    1362.5838 
 1930000    811.39072   -4276.2675            0   -4210.9269   -816.95338    22.509851    22.538242    22.288228    2.8391849    14582.028    1354.6146 
 1931000    784.97676   -4278.6961            0   -4215.4826    -799.8751    22.509851    22.538242    22.288228    3.0309115    14589.981    1346.6449 
 1932000    766.40517   -4275.4467            0   -4213.7288   -1030.0119    22.509851    22.538242    22.288228    2.6786737     14597.93    1338.6748 
 1933000    797.93589   -4274.3966            0   -4210.1396   -231.97431    22.509851    22.538242    22.288228    2.9136745    14605.887    1330.7055 
 1934000    802.69633   -4279.9732            0   -4215.3328   -1327.3066    22.509851    22.538242    22.288228    2.9413552    14613.844    1322.7361 
 1935000    754.64871   -4278.5481            0    -4217.777   -2062.2342    22.509851    22.538242    22.288228    3.3674037    14621.849    1314.7712 
 1936000    781.90227   -4272.8083            0   -4209.8424    1095.0649    22.509851    22.538242    22.288228    2.6115614    14629.804    1306.8017 
 1937000     800.2069    -4277.603            0   -4213.1631   -1891.5488    22.509851    22.538242    22.288228    2.9040087    14637.764    1298.8326 
 1938000    774.69283   -4277.7181            0   -4215.3328   -2329.8514    22.509851    22.538242    22.288228     2.609024    14645.724    1290.8636 
 1939000    862.24297   -4278.2493            0   -4208.8137   -767.29176    22.509851    22.538242    22.288228    3.0696288    14653.683    1282.8945 
 1940000    791.63327   -4278.5519            0   -4214.8024   -487.71535    22.509851    22.538242    22.288228    2.6557054    14661.636    1274.9248 
 1941000    839.12592   -4276.2313            0   -4208.6573   -1476.0391    22.509851    22.538242    22.288228    3.5737154    14669.689    1266.9639 
 1942000    834.10407   -4276.9173            0   -4209.7477   -1800.1294    22.509851    22.538242    22.288228    2.9188272    14677.643    1258.9944 
 1943000    795.22987   -4277.7829            0   -4213.7438   -2302.7686    22.509851    22.538242    22.288228    3.1132649    14685.609    1251.0258 
 1944000    857.32399    -4274.864            0   -4205.8245   -429.96244    22.509851    22.538242    22.288228    2.7014566    14693.646    1243.0633 
 1945000    807.13728   -4274.5709            0   -4209.5729   -887.71684    22.509851    22.538242    22.288228    2.7930251    14701.605    1235.0942 
 1946000    766.87461   -4274.6152            0   -4212.8595    -714.8801    22.509851    22.538242    22.288228    3.2678762    14709.562    1227.1249 
 1947000    789.01876   -4272.1175            0   -4208.5785     1395.778    22.509851    22.538242    22.288228    2.8374684    14717.527    1219.1563 
 1948000    809.87517   -4274.3081            0   -4209.0896    -1536.601    22.509851    22.538242    22.288228    2.6012038    14725.503    1211.1885 
 1949000    805.22107   -4277.9624            0   -4213.1187   -1731.9696    22.509851    22.538242    22.288228    2.5757788    14733.467    1203.2198 
 1950000    820.44929   -4275.2077            0   -4209.1377   -315.87817    22.509851    22.538242    22.288228    2.9614335    14741.434    1195.2514 
 1951000    839.65628    -4274.756            0   -4207.1393   -167.58703    22.509851    22.538242    22.288228    3.3879563    14749.409    1187.2836 
 1952000    800.68635   -4277.2208            0   -4212.7423   -1060.6987    22.509851    22.538242    22.288228    2.3381129    14757.359    1179.3138 
 1953000     785.2265   -4273.5238            0   -4210.2903   -940.15896    22.509851    22.538242    22.288228    2.6135207    14765.309     1171.344 
 1954000    833.21102   -4273.7826            0   -4206.6849   -302.41764    22.509851    22.538242    22.288228    2.7387926    14773.273    1163.3753 
 1955000    777.81223   -4277.1636            0   -4214.5271   -2858.1021    22.509851    22.538242    22.288228    3.0100476    14781.231    1155.4062 
 1956000     817.5163   -4275.3008            0    -4209.467   -811.85822    22.509851    22.538242    22.288228    2.7744344    14789.184    1147.4367 
 1957000    793.46127   -4275.4809            0   -4211.5842   -1165.4206    22.509851    22.538242    22.288228    3.1540095    14797.143    1139.4677 
 1958000    792.36629   -4278.1409            0   -4214.3323   -775.72359    22.509851    22.538242    22.288228    2.9742486    14805.098    1131.4983 
 1959000    801.26961   -4273.4394            0   -4208.9139    180.56149    22.509851    22.538242    22.288228    2.8009931    14813.055    1123.5292 
 1960000    771.30254   -4278.3757            0   -4216.2634   -967.68078    22.509851    22.538242    22.288228    2.7147887    14821.002    1115.5593 
 1961000    776.88251    -4276.252            0   -4213.6903   -1256.9517    22.509851    22.538242    22.288228    2.4351039    14828.952    1107.5897 
 1962000    818.42497   -4276.2049            0   -4210.2979   -1314.8503    22.509851    22.538242    22.288228    2.3218355     14836.91    1099.6206 
 1963000    787.13841   -4279.4181            0   -4216.0305   -2269.1246    22.509851    22.538242    22.288228    2.6417426    14844.881    1091.6525 
 1964000     754.4173    -4274.515            0   -4213.7625   -396.96761    22.509851    22.538242    22.288228    2.8240393    14852.842    1083.6837 
 1965000     795.2136   -4274.9728            0    -4210.935    -1260.149    22.509851    22.538242    22.288228    2.7107687    14860.805    1075.7151 
 1966000    760.59386   -4276.1321            0   -4214.8822   -1525.2968    22.509851    22.538242    22.288228    3.2567417    14868.783    1067.7475 
 1967000    820.93571   -4281.5838            0   -4215.4746   -999.70709    22.509851    22.538242    22.288228     3.299407    14876.739    1059.7784 
 1968000    833.47702   -4277.6987            0   -4210.5795    -385.0068    22.509851    22.538242    22.288228    2.4998038    14884.693    1051.8092 
 1969000    779.54973   -4276.9328            0   -4214.1564   -2549.2563    22.509851    22.538242    22.288228    2.6046769    14892.657    1043.8406 
 1970000    788.64611   -4279.4825            0   -4215.9735   -1099.2681    22.509851    22.538242    22.288228    3.1282195     14900.61    1035.8713 
 1971000    814.92726   -4275.0964            0   -4209.4711   -1151.9348    22.509851    22.538242    22.288228    3.1465216    14908.581    1027.9032 
 1972000    797.49092   -4279.1489            0   -4214.9277   -1238.7657    22.509851    22.538242    22.288228    2.7111837     14916.53    1019.9337 
 1973000    817.96332   -4277.3033            0   -4211.4335   -2557.8186    22.509851    22.538242    22.288228    2.6872694    14924.488    1011.9647 
 1974000    848.98643   -4278.2281            0     -4209.86   -670.42075    22.509851    22.538242    22.288228    2.5079478    14932.461    1003.9969 
 1975000    773.06658   -4277.6831            0   -4215.4288   -1775.8537    22.509851    22.538242    22.288228    2.8745454    14940.419    996.02795 
 1976000    830.33396   -4274.4549            0   -4207.5889    1018.2618    22.509851    22.538242    22.288228    3.1133531    14948.389    988.05985 
 1977000    821.20302   -4277.6086            0   -4211.4779   -859.37239    22.509851    22.538242    22.288228    2.9313392     14956.35    980.09115 
 1978000    789.13029   -4277.5319            0    -4213.984   -1333.5902    22.509851    22.538242    22.288228    2.6095006    14964.302    972.12187 
 1979000    859.43544   -4274.3032            0   -4205.0937    363.98182    22.509851    22.538242    22.288228    2.6356671    14972.269    964.15357 
 1980000    776.77747   -4273.9824            0   -4211.4292   -874.37374    22.509851    22.538242    22.288228    2.9223252    14980.229    956.18486 
 1981000    805.77288   -4277.9556            0   -4213.0675   -1507.8145    22.509851    22.538242    22.288228    2.4770399    14988.187    948.21595 
 1982000    871.62772    -4275.583            0   -4205.3916   -432.52851    22.509851    22.538242    22.288228    2.7173527    14996.149    940.24738 
 1983000    794.18708   -4274.7051            0     -4210.75   -989.08519    22.509851    22.538242    22.288228    3.0224646    15004.121    932.27944 
 1984000    791.43422   -4275.9924            0   -4212.2589   -29.602012    22.509851    22.538242    22.288228    3.2290048    15012.074     924.3103 
 1985000    788.21486   -4274.5488            0   -4211.0746   -2066.6442    22.509851    22.538242    22.288228    2.7976885    15020.027    916.34116 
 1986000    820.20301   -4274.1526            0   -4208.1024   -809.83405    22.509851    22.538242    22.288228     3.169478    15027.993    908.37283 
 1987000    793.53391   -4279.1546            0    -4215.252   -1542.3491    22.509851    22.538242    22.288228    3.3664308    15035.952    900.40413 
 1988000     820.4305   -4277.9393            0   -4211.8708   -314.41648    22.509851    22.538242    22.288228    2.1905245      15043.9    892.43473 
 1989000    825.57712   -4277.1721            0   -4210.6891   -745.27956    22.509851    22.538242    22.288228       3.0213    15051.853    884.46572 
 1990000    802.85214   -4277.7348            0   -4213.0818   -1373.8763    22.509851    22.538242    22.288228     2.952849    15059.812      876.497 
 1991000     771.2532   -4280.7364            0   -4218.6281   -2380.8682    22.509851    22.538242    22.288228    2.9965266    15067.777    868.52864 
 1992000    821.97672   -4276.7712            0   -4210.5782   -1006.9002    22.509851    22.538242    22.288228    3.0117117     15075.73    860.55966 
 1993000    801.31159   -4276.4772            0   -4211.9484   -1838.0104    22.509851    22.538242    22.288228    3.3811838    15083.696    852.59138 
 1994000    782.30304   -4280.0855            0   -4217.0874    -2863.112    22.509851    22.538242    22.288228    2.2756104    15091.648    844.62233 
 1995000    835.26709   -4276.1369            0   -4208.8737   -1630.4033    22.509851    22.538242    22.288228     2.523135    15099.605    836.65359 
 1996000    828.88387   -4280.3648            0   -4213.6155   -1436.0489    22.509851    22.538242    22.288228     2.595466    15107.565    828.68502 
 1997000    827.24625   -4280.2301            0   -4213.6127   -2036.6058    22.509851    22.538242    22.288228    2.7403021    15115.513    820.71576 
 1998000    829.72103   -4275.2651            0   -4208.4485   -1242.7441    22.509851    22.538242    22.288228    2.2869115    15123.465     812.7468 
 1999000    778.88838   -4276.8198            0   -4214.0967   -1704.9237    22.509851    22.538242    22.288228    2.6662853    15131.426    804.77832 
 2000000     845.7863   -4275.1653            0   -4207.0549   -96.306493    22.509851    22.538242    22.288228    2.8451865    15139.377    796.80933 
 2001000    784.28316   -4271.6839            0   -4208.5263   -243.89943    22.509851    22.538242    22.288228    3.2375193    15147.338    788.84086 
 2002000    782.00914   -4276.2347            0   -4213.2602   -908.86315    22.509851    22.538242    22.288228    2.2615603    15155.296    780.87227 
 2003000    835.04278   -4275.9178            0   -4208.6726   -509.20643    22.509851    22.538242    22.288228    2.3862522    15163.255    772.90369 
 2004000    803.06584   -4273.9011            0   -4209.2309   -304.69208    22.509851    22.538242    22.288228    3.9739674    15171.216    764.93528 
 2005000    784.54763   -4275.8613            0   -4212.6824   -167.40585    22.509851    22.538242    22.288228    2.6764113    15179.177    756.96682 
 2006000     813.9545   -4275.4843            0   -4209.9373   -257.83842    22.509851    22.538242    22.288228    2.6181679     15187.14    748.99853 
 2007000    848.19372   -4274.1036            0   -4205.7993    92.568201    22.509851    22.538242    22.288228    3.2320897    15195.088    741.02947 
 2008000    789.11867   -4276.5345            0   -4212.9875   -1491.4794    22.509851    22.538242    22.288228    2.5018315    15203.042    733.06075 
 2009000    802.80537    -4275.541            0   -4210.8919   -1471.0498    22.509851    22.538242    22.288228    2.9905093        15211    725.09219 
 2010000    816.48538   -4271.6341            0   -4205.8833    198.98002    22.509851    22.538242    22.288228    3.1323053    15218.968    717.12415 
 2011000    764.92734   -4275.5864            0   -4213.9876   -1221.3975    22.509851    22.538242    22.288228    2.5461508    15226.917    709.15522 
 2012000    831.20868   -4276.8488            0   -4209.9123   -458.76608    22.509851    22.538242    22.288228    2.8171875    15234.883    701.18711 
 2013000    779.90717    -4270.997            0   -4208.1918   -89.000012    22.509851    22.538242    22.288228    2.6167516    15242.847    693.21888 
 2014000     796.2325   -4279.2763            0   -4215.1564   -2901.3907    22.509851    22.538242    22.288228    3.1828566    15250.815    685.25083 
 2015000    831.22736   -4275.9025            0   -4208.9645   -1107.6362    22.509851    22.538242    22.288228    2.8326883    15258.772     677.2823 
 2016000    758.06558   -4272.8541            0   -4211.8078   -889.17437    22.509851    22.538242    22.288228    3.0098286    15266.721    669.31344 
 2017000    760.71869   -4279.5455            0   -4218.2855   -2510.1703    22.509851    22.538242    22.288228    2.5655854    15274.701    661.34593 
 2018000    814.87242   -4276.3277            0   -4210.7068   -163.42056    22.509851    22.538242    22.288228    2.8256073    15282.657    653.37742 
 2019000    797.22035   -4274.5177            0   -4210.3183   -147.72076    22.509851    22.538242    22.288228    3.6760686    15290.603    645.40848 
 2020000    763.35746   -4278.1181            0   -4216.6456    8.8429058    22.509851    22.538242    22.288228    2.4565146     15298.55    637.43957 
 2021000    806.69942    -4277.541            0   -4212.5782    -1887.492    22.509851    22.538242    22.288228    2.3011608      15306.5    629.47084 
 2022000    808.55203   -4276.0379            0    -4210.926    309.28784    22.509851    22.538242    22.288228    3.3485836    15314.453    621.50226 
 2023000    803.80859   -4277.0733            0   -4212.3433   -1494.8155    22.509851    22.538242    22.288228     2.713147    15322.408    613.53376 
 2024000    752.62929   -4275.6767            0   -4215.0681   -1456.1808    22.509851    22.538242    22.288228    3.0041952    15330.356    605.56499 
 2025000    825.95027     -4274.48            0    -4207.967    63.205021    22.509851    22.538242    22.288228    2.6057701    15338.312    597.59657 
 2026000    792.53647   -4275.7608            0   -4211.9386   -928.79844    22.509851    22.538242    22.288228    2.4924614    15346.266    589.62808 
 2027000    775.92652   -4274.7764            0   -4212.2917   -982.50161    22.509851    22.538242    22.288228    2.9472872     15354.24    581.66037 
 2028000    794.02994   -4273.3774            0   -4209.4349   -1140.9601    22.509851    22.538242    22.288228    3.8258402    15362.203    573.69224 
 2029000    864.87583   -4275.4612            0   -4205.8135   -272.26277    22.509851    22.538242    22.288228    2.8460766    15370.168    565.72417 
 2030000    807.33083   -4278.2007            0   -4213.1871    -110.8219    22.509851    22.538242    22.288228    2.2430158    15378.139    557.75633 
 2031000    806.90158     -4275.56            0   -4210.5809   -680.84813    22.509851    22.538242    22.288228    2.5817932    15386.096    549.78799 
 2032000    850.67173   -4274.8115            0   -4206.3076    914.07957    22.509851    22.538242    22.288228    2.5167441    15394.055    541.81975 
 2033000    791.18861   -4277.9534            0   -4214.2397   -1470.8955    22.509851    22.538242    22.288228    3.5123039    15402.017     533.8516 
 2034000    854.51324   -4277.9974            0   -4209.1843   -800.89473    22.509851    22.538242    22.288228    2.9638884    15409.967    525.88306 
 2035000    783.36222   -4275.5753            0   -4212.4919   -1181.9831    22.509851    22.538242    22.288228    2.8919651    15417.925    517.91478 
 2036000    827.12956   -4280.8009            0   -4214.1929   -1641.1251    22.509851    22.538242    22.288228    2.2854036    15425.885     509.9466 
 2037000    847.23046    -4277.635            0   -4209.4084   -106.48386    22.509851    22.538242    22.288228    3.5872258    15433.834    501.97807 
 2038000    769.30335    -4279.339            0   -4217.3877   -2885.2764    22.509851    22.538242    22.288228    3.3270398    15441.791    494.00983 
 2039000    790.36701   -4277.7832            0   -4214.1357   -1341.3378    22.509851    22.538242    22.288228    2.8353925    15449.749    486.04161 
 2040000    802.11594   -4274.2212            0   -4209.6275   -1297.3415    22.509851    22.538242    22.288228    3.1855497    15457.714    478.07364 
 2041000    764.97374   -4277.1232            0   -4215.5206   -660.43881    22.509851    22.538242    22.288228    2.6923489    15465.671    470.10539 
 2042000    797.25965    -4278.124            0   -4213.9214   -1937.9496    22.509851    22.538242    22.288228    2.7072304    15473.642    462.13761 
 2043000    784.18343   -4274.3598            0   -4211.2102    -1107.719    22.509851    22.538242    22.288228    2.4935888    15481.602     454.1695 
 2044000    806.93404   -4278.2597            0    -4213.278   -1992.3029    22.509851    22.538242    22.288228    3.1976819    15489.558    446.20126 
 2045000    767.16566   -4277.9427            0   -4216.1636   -2379.3085    22.509851    22.538242    22.288228    3.4082645    15497.519    438.23319 
 2046000    830.64763   -4276.0082            0    -4209.117   -509.55335    22.509851    22.538242    22.288228    2.5481943    15505.474    430.26495 
 2047000     780.0839   -4276.6515            0   -4213.8321    188.83557    22.509851    22.538242    22.288228    2.9479097    15513.435     422.2969 
 2048000    749.58939   -4279.1578            0   -4218.7941   -3472.6544    22.509851    22.538242    22.288228    2.0485579    15521.387     414.3286 
 2049000    828.02421   -4277.2863            0   -4210.6062   -695.26421    22.509851    22.538242    22.288228    2.7999747     15529.38     406.3614 
 2050000    806.54714   -4274.5986            0   -4209.6481    518.29757    22.509851    22.538242    22.288228    3.2467439    15537.339     398.3933 
 2051000    787.38655   -4279.3238            0   -4215.9163   -1667.9039    22.509851    22.538242    22.288228    3.2453431    15545.292    390.42507 
 2052000    806.17847   -4272.5493            0   -4207.6285    1815.9824    22.509851    22.538242    22.288228      3.18032    15553.247    382.45691 
 2053000    815.41526   -4277.3311            0   -4211.6665   -721.55303    22.509851    22.538242    22.288228    3.4628654      15561.2    374.48869 
 2054000    776.26246   -4276.7705            0   -4214.2588   -1379.0601    22.509851    22.538242    22.288228    2.9449511    15569.154    366.52052 
 2055000    834.05511   -4273.8049            0   -4206.6392     339.0426    22.509851    22.538242    22.288228    2.3870481    15577.112    358.55244 
 2056000    794.71123   -4276.1443            0   -4212.1469   -452.63997    22.509851    22.538242    22.288228    3.6318839    15585.071    350.58442 
 2057000     802.6372   -4276.6471            0   -4212.0115   -690.01532    22.509851    22.538242    22.288228    3.8147718    15593.033    342.61647 
 2058000    851.11739   -4273.8805            0   -4205.3408   -360.93305    22.509851    22.538242    22.288228    3.0353778    15600.977    334.64813 
 2059000    815.57418   -4275.9331            0   -4210.2556   -937.10908    22.509851    22.538242    22.288228    2.8564369    15608.942    326.68025 
 2060000    770.97129   -4274.8274            0   -4212.7418   -1063.2554    22.509851    22.538242    22.288228    2.4277306    15616.916    318.71258 
 2061000    808.39391   -4274.6462            0    -4209.547   -978.16323    22.509851    22.538242    22.288228    2.3086641    15624.862    310.74433 
 2062000    856.49193   -4277.9207            0   -4208.9482   -679.37997    22.509851    22.538242    22.288228      2.22376     15632.81    302.77613 
 2063000    815.37559   -4279.8765            0   -4214.2151   -1547.2287    22.509851    22.538242    22.288228    2.1839147    15640.774    294.80828 
 2064000    809.74783   -4274.1623            0   -4208.9541   -1322.1811    22.509851    22.538242    22.288228    2.7494518    15648.747    286.84057 
 2065000    784.87373   -4272.5597            0   -4209.3545   -20.404098    22.509851    22.538242    22.288228    3.1684576    15656.714    278.87276 
 2066000    774.57386   -4277.5178            0   -4215.1421   -1189.1511    22.509851    22.538242    22.288228    2.4606258    15664.669    270.90476 
 2067000    800.22332   -4272.9838            0   -4208.5425   -1447.6336    22.509851    22.538242    22.288228    3.9874402    15672.642    262.93705 
 2068000    802.52812   -4275.2062            0   -4210.5793    59.473506    22.509851    22.538242    22.288228    2.7829396    15680.608    254.96924 
 2069000    801.05305   -4276.1072            0   -4211.5992   -1036.6095    22.509851    22.538242    22.288228    3.2911127    15688.607    247.00195 
 2070000    801.34376   -4276.3486            0   -4211.8172   -802.87912    22.509851    22.538242    22.288228    2.7423374    15696.639     239.0351 
 2071000    786.75367   -4276.4362            0   -4213.0796   -869.08025    22.509851    22.538242    22.288228    2.7115857    15704.599    231.06716 
 2072000    801.83442   -4274.5437            0   -4209.9727    -1530.284    22.509851    22.538242    22.288228    2.7243568    15712.653    223.10054 
 2073000    809.92123   -4274.9662            0    -4209.744    761.25328    22.509851    22.538242    22.288228    3.3392564    15720.668    215.13331 
 2074000    764.17334   -4276.7572            0    -4215.219   -1164.3574    22.509851    22.538242    22.288228    2.5630139    15728.722    207.16655 
 2075000       819.69   -4275.0426            0   -4209.0338   -952.79104    22.509851    22.538242    22.288228    3.0119292    15736.734    199.19916 
 2076000    804.39399   -4274.6423            0   -4209.8652   -1912.2627    22.509851    22.538242    22.288228    3.6843306    15744.687    191.23102 
 2077000    765.10032   -4275.4908            0    -4213.878   -2649.3958    22.509851    22.538242    22.288228     3.248197    15752.657    183.26308 
 2078000    792.59962   -4274.2854            0    -4210.458   -819.16795    22.509851    22.538242    22.288228    3.3671469    15760.616    175.29502 
 2079000    810.28339   -4274.0877            0   -4208.8364    57.694709    22.509851    22.538242    22.288228    2.9526652    15768.572    167.32694 
 2080000    779.07884   -4276.4717            0   -4213.7333   -1258.9707    22.509851    22.538242    22.288228    3.1681816    15776.529    159.35888 
 2081000    811.41794   -4276.3818            0    -4211.039    133.47951    22.509851    22.538242    22.288228     2.396641    15784.479    151.39076 
 2082000    827.20274   -4274.6579            0    -4208.044   -257.34021    22.509851    22.538242    22.288228    3.3750109    15792.432    143.42269 
 2083000    789.03048   -4276.5911            0   -4213.0512    467.19937    22.509851    22.538242    22.288228    2.8717435    15800.395    135.45472 
 2084000    793.00164   -4277.0687            0    -4213.209   -1249.9414    22.509851    22.538242    22.288228    2.9831248    15808.346    127.48666 
 2085000    845.18804   -4275.0333            0   -4206.9711   -1362.6947    22.509851    22.538242    22.288228    3.1670809    15816.295     119.5186 
 2086000    808.57084   -4276.8836            0   -4211.7702   -50.537357    22.509851    22.538242    22.288228    2.3663916    15824.253    111.55062 
 2087000    793.25414   -4276.7167            0   -4212.8367   -1673.5867    22.509851    22.538242    22.288228    2.5245318    15832.218     103.5827 
 2088000    857.93718   -4275.1256            0   -4206.0368    119.46414    22.509851    22.538242    22.288228    3.1965029    15840.179    95.614764 
 2089000     800.3159   -4277.3969            0   -4212.9482   -1234.8368    22.509851    22.538242    22.288228    3.1554499    15848.139     87.64682 
 2090000    807.71991   -4277.1609            0    -4212.116   -555.66011    22.509851    22.538242    22.288228    2.3805209    15856.096    79.678877 
 2091000    866.22646   -4274.1744            0    -4204.418    646.91328    22.509851    22.538242    22.288228    2.6687521    15864.055    71.710947 
 2092000    769.25222   -4273.2512            0    -4211.304    573.11044    22.509851    22.538242    22.288228    2.7360508     15872.03    63.743092 
 2093000    787.47482   -4276.7723            0   -4213.3577   -974.31574    22.509851    22.538242    22.288228    2.6640115    15879.993     55.77519 
 2094000    796.81358   -4274.2155            0   -4210.0488   -711.33535    22.509851    22.538242    22.288228    2.3374789    15887.959    47.807299 
 2095000    789.57398   -4272.2414            0   -4208.6577   -497.33473    22.509851    22.538242    22.288228    3.2405696    15895.915    39.839386 
 2096000     797.3843   -4278.5398            0   -4214.3272   -1624.0074    22.509851    22.538242    22.288228    2.2014748    15903.878      31.8715 
 2097000    797.98773   -4273.7463            0   -4209.4851   -353.65661    22.509851    22.538242    22.288228    3.2744935    15911.837     23.90361 
 2098000    841.91168   -4273.1584            0     -4205.36   -52.986605    22.509851    22.538242    22.288228    2.6400561    15919.798    15.935734 
 2099000    792.20948   -4277.4383            0   -4213.6424   -2058.7301    22.509851    22.538242    22.288228    2.7430147    15927.761    7.9678644 
 2100000    797.18795   -4276.4625            0   -4212.2657   -344.69734    22.509851    22.538242    22.288228    2.5028682     15935.72            0 
Loop time of 15935.7 on 1 procs for 2000000 steps with 624 atoms

Performance: 10.844 ns/day, 2.213 hours/ns, 125.504 timesteps/s
99.9% CPU use with 1 MPI tasks x no OpenMP threads

MPI task timing breakdown:
Section |  min time  |  avg time  |  max time  |%varavg| %total
---------------------------------------------------------------
Pair    | 12355      | 12355      | 12355      |   0.0 | 77.53
Kspace  | 3349.6     | 3349.6     | 3349.6     |   0.0 | 21.02
Neigh   | 134.67     | 134.67     | 134.67     |   0.0 |  0.85
Comm    | 56.292     | 56.292     | 56.292     |   0.0 |  0.35
Output  | 2.6687     | 2.6687     | 2.6687     |   0.0 |  0.02
Modify  | 22.227     | 22.227     | 22.227     |   0.0 |  0.14
Other   |            | 15.03      |            |       |  0.09

Nlocal:        624.000 ave         624 max         624 min
Histogram: 1 0 0 0 0 0 0 0 0 0
Nghost:        6777.00 ave        6777 max        6777 min
Histogram: 1 0 0 0 0 0 0 0 0 0
Neighs:        197544.0 ave      197544 max      197544 min
Histogram: 1 0 0 0 0 0 0 0 0 0

Total # of neighbors = 197544
Ave neighs/atom = 316.57692
Neighbor list builds = 34906
Dangerous builds = 0

# Final Commands
variable final_energy equal etotal
print "final_energy: ${final_energy}"
final_energy: -4212.26570618402
print "END_OF_COMP"
END_OF_COMP
Total wall time: 4:40:03
